"File Number","u","v","x_c","y_c","u_c","v_c","exx","eyy","exy","e1","e2","gamma","e_vonmises"
0,0,0,-10.4875862401,5.07326325018,0,0,0,0,0,0,0,0,0
1,-0.00616317796185,-0.0279161438745,-10.4875862401,5.07326325018,-0.000262754599073,0.00119013405896,3.94440288786e-05,-1.21483585083e-05,-1.00334430852e-05,0.000354415670055,-0.000327119999314,-0.0269840789693,0.000662363711798
2,0.0305472335864,-0.0105106452799,-10.4875862401,5.07326325018,0.001302312322,0.000448096405081,3.15465485521e-05,9.52469520829e-06,-2.10679560346e-05,0.0003538326918,-0.000312761447981,-0.0597958833396,0.000640959596914
3,0.0381116484268,0.000737778679375,-10.4875862401,5.07326325018,0.00162479809631,-3.14487543923e-05,2.48766486859e-05,-1.18476997948e-05,1.01921821153e-05,0.000338100519359,-0.000325071570201,0.00268579005216,0.000642716726362
4,0.0494944941027,0.0138876541118,-10.4875862401,5.07326325018,0.00211006509191,-0.000592064544374,1.77700795768e-05,-2.83802197896e-05,-7.84368156344e-06,0.000299418412636,-0.0003100285531,-0.0224445426645,0.000585702408045
5,0.0573922546108,0.0165294425742,-10.4875862401,5.07326325018,0.00244676977274,-0.000704686749054,1.92999141317e-05,-1.73116018373e-05,1.24129406393e-05,0.00034650231094,-0.000344513998707,-0.0135189555161,0.000661859897804
6,0.0998642331781,0.0192274317645,-10.4875862401,5.07326325018,0.00425745549433,-0.000819710673457,2.95558646841e-05,-3.99998315013e-05,-5.88792566781e-06,0.0003232755599,-0.000333719526755,-0.00541287219195,0.00063672027727
7,0.143000872167,0.0230176036948,-10.4875862401,5.07326325018,0.00609647956911,-0.000981287723398,3.89023251967e-05,-5.50826630983e-06,4.31963159398e-06,0.000363810905321,-0.000330416846551,0.0457530733923,0.000677104422473
8,0.18131823599,0.0108894422704,-10.4875862401,5.07326325018,0.00773005307932,-0.00046424230706,3.45602019126e-05,-9.72610467712e-06,8.73081368412e-06,0.000343147589922,-0.000318313492572,-0.0163698044533,0.000636196923408
9,0.233043082792,0.012376323381,-10.4875862401,5.07326325018,0.00993520288011,-0.000527627694395,2.90486220211e-05,-2.17398375592e-05,7.28161189059e-06,0.0003483423099,-0.000341033525343,0.0311023343131,0.00066383931108
10,0.286687962736,0.00413151953071,-10.4875862401,5.07326325018,0.0122222154349,-0.000176137347061,3.60137937774e-05,5.82014188672e-06,2.25099564459e-05,0.000340276759291,-0.000298442823773,0.0160984856871,0.000619957440183
11,0.336427466681,-0.00109649831339,-10.4875862401,5.07326325018,0.0143427311191,4.67411367799e-05,2.16246945807e-05,1.36495865295e-05,2.33327805342e-05,0.000310612769707,-0.000275338488506,0.0799994898461,0.000565925831983
12,0.396954757997,-0.00447282775895,-10.4875862401,5.07326325018,0.0169231633191,0.000190685204447,3.76631531786e-05,-4.33810086875e-06,-1.05746878456e-05,0.000323245573365,-0.0002899205212,-0.0234313857234,0.00058531122448
13,0.485584650881,0.0217391800451,-10.4875862401,5.07326325018,0.020701670606,-0.000926793325462,4.14419253352e-05,2.44307483232e-05,9.23825341995e-06,0.000361186437242,-0.000295313763968,0.0387752487284,0.0006354549701
14,0.558272165415,0.0274768294133,-10.4875862401,5.07326325018,0.0238005188423,-0.00117141068618,3.86689207124e-05,-8.00650459127e-07,1.98129578382e-05,0.000331654191725,-0.000293785921588,0.049459409181,0.000605766377062
15,0.673822485111,0.0442127880621,-10.4875862401,5.07326325018,0.0287267088361,-0.00188490001207,3.37466478683e-05,-2.17301356711e-05,-6.20611313921e-06,0.000326141497491,-0.000314124985379,0.0152908325044,0.000621434101066
16,0.754285505372,0.0631529371855,-10.4875862401,5.07326325018,0.0321570462797,-0.00269237103326,3.71449402946e-05,-1.65704789268e-05,2.39316876979e-06,0.000328139377953,-0.000307564916639,0.0222857756118,0.000618097820316
17,0.821791557172,0.0730316938515,-10.4875862401,5.07326325018,0.0350349892277,-0.00311352037631,4.01378565406e-05,-1.98550085019e-05,2.77052363502e-05,0.00034234938555,-0.000322066537373,0.06484630799,0.000640412569043
18,0.934135800441,0.0701428171558,-10.4875862401,5.07326325018,0.0398245113111,-0.00299036761568,5.46312360175e-06,-4.24062661282e-05,2.39204107507e-05,0.000323118642987,-0.000360061785442,0.104777634714,0.000659850894638
19,1.00102544511,0.102626316396,-10.4875862401,5.07326325018,0.0426761839861,-0.00437521635411,4.93900662301e-05,1.75150213236e-05,2.06747940368e-06,0.0003575426032,-0.000290637515762,0.0709900838751,0.000626042726782
20,1.09921044712,0.111614917586,-10.4875862401,5.07326325018,0.0468620511741,-0.00475841800775,2.3303816175e-05,-3.44273721656e-05,6.64507042622e-06,0.000363282951953,-0.000374406508162,-0.0483896595156,0.000708676517379
21,1.21254304804,0.136811994802,-10.4875862401,5.07326325018,0.0516937084348,-0.00583262961313,3.09157738507e-05,-3.09277704088e-05,1.67819610879e-06,0.00034936331679,-0.000349375313351,0.0213420890599,0.000674014881569
22,1.33605685406,0.189272179871,-10.4875862401,5.07326325018,0.0569593926614,-0.00806914301475,1.37656924595e-05,-3.26585716473e-05,2.12002641119e-05,0.000324313804632,-0.000343206684137,0.0615699127197,0.000637445784049
23,1.41005094016,0.255766340278,-10.4875862401,5.07326325018,0.0601139436705,-0.0109039536756,2.7269663663e-05,-4.94845172097e-05,-6.49889960791e-06,0.000317604871861,-0.000339819725556,-0.000404358485908,0.00063844865311
24,1.54858571977,0.365869293297,-10.4875862401,5.07326325018,0.0660200254173,-0.0155979139782,1.4708675728e-05,-2.36025428344e-05,1.23401194535e-06,0.000335470121602,-0.000344363988753,-0.0287059893282,0.000652975395406
25,1.6776124586,0.469394874865,-10.4875862401,5.07326325018,0.071520744738,-0.0200114629907,2.46054358914e-05,-4.55686768868e-05,1.72688580557e-05,0.000303195453539,-0.000324158694628,0.0719928620296,0.000605138728924
26,1.78008019942,0.573219524005,-10.4875862401,5.07326325018,0.0758892083979,-0.0244377660223,-9.08272973263e-06,-6.20430262035e-05,8.0249809517e-06,0.00027728172923,-0.000348407485096,0.0255257755419,0.000602440928346
27,1.97492140627,0.703906200744,-10.4875862401,5.07326325018,0.0841957734738,-0.0300092524112,-8.39641756719e-07,-0.000137111170421,1.43030054556e-05,0.000285791745466,-0.000423742557567,-0.0208145724179,0.000685502958651
28,2.12920533269,0.763401153143,-10.4875862401,5.07326325018,0.090773270908,-0.0325456644259,-1.9412031777e-05,-5.53027160733e-05,3.06398228713e-06,0.000310323568715,-0.000385038316465,-0.01825308132,0.000669693341241
29,2.32705120106,0.821118435191,-10.4875862401,5.07326325018,0.0992079374151,-0.0350062939055,-2.13723689949e-05,-6.55300818719e-05,2.48328073359e-05,0.000277653719015,-0.000364556170126,0.0599286939638,0.000618114702166
30,2.50893031505,0.828602938169,-10.4875862401,5.07326325018,0.106961876214,-0.0353253771031,4.23855338827e-06,-8.7702883163e-05,1.14856596645e-05,0.000275118313311,-0.000358582643269,0.0160357418248,0.000612215065753
31,2.71875222787,0.872306949893,-10.4875862401,5.07326325018,0.115907104611,-0.0371885973855,4.69683616181e-06,-7.30173209989e-05,-1.2443616064e-05,0.00029968584347,-0.000368006328297,-0.00890498138796,0.00064162440627
32,2.94033579179,0.828601007691,-10.4875862401,5.07326325018,0.125353764542,-0.0353252979907,3.48795280423e-06,-0.000123141358776,-2.65076586401e-06,0.000269535604268,-0.000389189010278,-0.0342610918823,0.000634296938475
33,3.18007075597,0.837540477693,-10.4875862401,5.07326325018,0.135574258846,-0.0357064101531,-2.88191687321e-06,-5.28970448837e-05,-1.94340440597e-05,0.000312652359559,-0.000368431321247,-0.0111262435472,0.000653408607034
34,3.4297610645,0.875498246205,-10.4875862401,5.07326325018,0.14621916186,-0.0373246407177,-1.36289043565e-05,-0.000138402374174,1.9619151942e-05,0.000276022514353,-0.000428053792633,0.052000280128,0.000680577972374
35,3.66400160477,0.900266938417,-10.4875862401,5.07326325018,0.156205412791,-0.0383805992976,-1.73867567333e-05,-0.00013081340749,3.98907900498e-06,0.000269230345993,-0.000417430510603,0.060248121186,0.000673392150442
36,3.932093184,0.933498747604,-10.4875862401,5.07326325018,0.167634806722,-0.039797345291,-1.80519168672e-05,-0.000117256798706,-1.54430609616e-05,0.000269745974988,-0.000405054690688,-0.0135277420745,0.000655792031526
37,4.12462724919,1.09292024844,-10.4875862401,5.07326325018,0.175843037387,-0.0465938828146,-2.90616474643e-05,-2.78792252747e-05,-1.25529930935e-05,0.000308896500443,-0.00036583737314,-0.0283885325375,0.000650341896755
38,4.31673380787,1.27643782767,-10.4875862401,5.07326325018,0.184033003541,-0.0544176992697,-3.01666177459e-05,-6.42955268402e-05,1.34117917228e-06,0.000298851562161,-0.0003933137064,0.000344135648605,0.000664235098695
39,4.5034697158,1.46614188798,-10.4875862401,5.07326325018,0.191994013871,-0.0625052449497,-2.1691823798e-05,-0.000142061993882,-5.87947483184e-07,0.000251574473085,-0.00041532829091,-0.0186261565168,0.000642049645421
40,4.68558416557,1.64636560517,-10.4875862401,5.07326325018,0.199757997231,-0.0701886191277,-1.82981673173e-05,-9.32724459234e-05,2.46240951061e-06,0.000283364997357,-0.000394935610725,-0.0376726096468,0.000650653188078
41,4.84943136341,1.70706582827,-10.4875862401,5.07326325018,0.206743204837,-0.0727764165302,-1.20520981198e-05,-0.000164591029852,-5.67498082797e-06,0.000250327935577,-0.000426971063485,0.0230148306648,0.000663365847957
42,5.00442116231,1.73779005831,-10.4875862401,5.07326325018,0.21335081245,-0.0740862682268,9.43346104754e-07,-0.000107311882528,-7.99799689878e-06,0.000306181180864,-0.000412549716902,-0.0269863376766,0.000696780701058
43,5.15402677031,1.73484241834,-10.4875862401,5.07326325018,0.219728865687,-0.0739606084301,9.41468565816e-06,-0.0001116741168,3.31297829802e-06,0.000308623526974,-0.000410882958173,0.00203925060173,0.000684585774034
44,5.30703928199,1.73604472441,-10.4875862401,5.07326325018,0.22625216514,-0.0740118612702,-3.34372079404e-06,-0.000119947476375,-3.54619076944e-06,0.000270380240915,-0.000393671438243,0.0144500423242,0.00063536929696
45,5.48093043273,1.75145614415,-10.4875862401,5.07326325018,0.233665566181,-0.0746688883383,3.31982801035e-05,-0.000126005106169,2.2103928579e-05,0.000279892302927,-0.000372699128748,0.0500238622618,0.000625101817909
46,5.62545472171,1.72265947918,-10.4875862401,5.07326325018,0.239826997368,-0.0734412213295,3.75032726784e-05,-8.26986319877e-05,1.0379615343e-05,0.000319811199825,-0.000365006559255,0.00477558351749,0.000654249848532
47,5.79050656773,1.7476280294,-10.4875862401,5.07326325018,0.246863551559,-0.0745056912086,5.01949640568e-05,-0.000101338800897,2.3529185776e-05,0.000325897008228,-0.00037704084476,0.0406051734851,0.000681503154472
48,5.96825409519,1.76355666337,-10.4875862401,5.07326325018,0.254441379472,-0.0751847652951,4.35888531833e-05,-9.46625103283e-05,-1.57920843706e-06,0.000321244812623,-0.000372318469909,-0.00569788709934,0.000663071627497
49,6.13155248334,1.75444653694,-10.4875862401,5.07326325018,0.261403202113,-0.074796372739,6.14797399214e-05,-6.43353531811e-05,4.17041567367e-06,0.000344170670163,-0.000347026283137,-0.00299627293273,0.000659438916224
50,6.30205956905,1.75650777411,-10.4875862401,5.07326325018,0.268672339915,-0.0748842601793,8.6972533641e-05,-0.00010030250669,2.2425009075e-06,0.000330737740212,-0.00034406771294,0.0181558042099,0.000641839585009
51,6.47816580294,1.74882817771,-10.4875862401,5.07326325018,0.276180171392,-0.0745568564589,0.000121406500761,-9.95577152131e-05,-2.5795323584e-06,0.000345975750703,-0.000324126965286,-0.00545310540154,0.000643229891407
52,6.66651765978,1.74515916923,-10.4875862401,5.07326325018,0.284210071639,-0.0744004329695,0.000130702735763,-0.00011917613973,3.2337261357e-06,0.000350678993844,-0.000339152397876,0.0216145547382,0.000659322745003
53,6.84155863038,1.75791331925,-10.4875862401,5.07326325018,0.291672498074,-0.0749441852085,0.000130754305051,-0.000112535954477,1.03152362173e-05,0.000353222095677,-0.000335003745157,0.0618270601494,0.000658458763966
54,7.02506027071,1.77040526656,-10.4875862401,5.07326325018,0.299495627918,-0.0754767415244,0.000148196262472,-0.000101783732421,-5.58261177811e-06,0.000400582231752,-0.000354169701598,-0.0598924784543,0.00071840839871
55,7.20864768149,1.76477557884,-10.4875862401,5.07326325018,0.307322418272,-0.0752367358446,0.00016056274287,-9.55545550073e-05,9.35701628211e-07,0.000381551959608,-0.000316543771698,0.0170796475596,0.000669599211679
56,7.39232097917,1.76668091835,-10.4875862401,5.07326325018,0.315152845608,-0.0753179601123,0.000172661777263,-6.84025840346e-05,2.53481555972e-05,0.000386116895535,-0.000281857702743,0.0570379430662,0.000636021505948
57,7.57263534379,1.79293662585,-10.4875862401,5.07326325018,0.322840101888,-0.0764373083728,0.000193502629982,-0.000107270969198,2.57837902916e-05,0.000396831161305,-0.000310599500676,0.0451499409812,0.00067260433277
58,7.75698893053,1.79592257904,-10.4875862401,5.07326325018,0.330699556403,-0.076564604165,0.000207530823345,-7.1147546051e-05,2.66699019986e-06,0.00041750342304,-0.000281120145425,-0.00294491349976,0.000661054498427
59,7.91356317501,1.81731136408,-10.4875862401,5.07326325018,0.337374695962,-0.0774764604472,0.000228845808769,-6.51325406475e-05,1.67248654232e-05,0.00045673177644,-0.000293018508317,0.00069651611046,0.000712106362652
60,8.0766651607,1.85408530166,-10.4875862401,5.07326325018,0.344328147668,-0.0790442213443,0.000253676023004,-6.43353163405e-05,9.91623305082e-06,0.000460368810917,-0.000271028103922,0.0165999431275,0.000702378207862
61,8.25765663253,1.87557354971,-10.4875862401,5.07326325018,0.352044256647,-0.0799603242207,0.000237320538424,-9.78331260303e-05,2.57544172796e-05,0.000440584793195,-0.000301097380549,0.0521872696133,0.000701407003004
62,8.45572946613,1.88396722519,-10.4875862401,5.07326325018,0.360488589977,-0.0803181638664,0.000271357492567,-0.000106279764317,2.08271016483e-05,0.000443281682308,-0.000278203954017,0.0676609931372,0.000691423633016
63,8.61252437434,1.88373075662,-10.4875862401,5.07326325018,0.367173140973,-0.0803080895495,0.000294722998991,-0.000112789533969,2.17189136705e-06,0.000469207888315,-0.000287274423179,-0.0089867959027,0.000720927546976
64,8.77979279962,1.88971055285,-10.4875862401,5.07326325018,0.374304205884,-0.0805630188329,0.000309143120382,-0.000154152610069,7.44485083505e-06,0.000482508332297,-0.000327517821795,0.0107808256891,0.000766079260136
65,8.94478556283,1.90226165895,-10.4875862401,5.07326325018,0.381338250382,-0.08109809859,0.000299751683529,-0.000187127682924,-3.52034215922e-06,0.000451413741047,-0.000338789740511,-0.00256213712072,0.000745678148242
66,9.11995414986,1.91114853449,-10.4875862401,5.07326325018,0.388806115784,-0.0814769716649,0.000306364625019,-0.000113706892644,5.75745751406e-06,0.000493037690333,-0.000300379957692,-0.00563026328745,0.000760735395436
67,9.30517757125,1.91885978765,-10.4875862401,5.07326325018,0.396702656415,-0.0818057296678,0.000325064868375,-0.000132759624543,5.86493026e-06,0.000510930105412,-0.000318624861623,-0.00504798373606,0.000786233881087
68,9.49784202544,1.91364587293,-10.4875862401,5.07326325018,0.404916408332,-0.0815834417125,0.000341192673122,-6.44440241645e-05,2.94730630027e-05,0.000522203232073,-0.000245454583094,0.0299590662035,0.000737728064333
69,9.6664764125,1.9477271339,-10.4875862401,5.07326325018,0.41210570265,-0.0830364109502,0.000371276786404,-0.000157383191446,2.38781302024e-05,0.000506000542981,-0.00029210694846,0.0550148795886,0.000754288411965
70,9.85577303796,1.96430457896,-10.4875862401,5.07326325018,0.420175892456,-0.0837431424126,0.000393543070558,-0.000134527213302,1.93514481791e-05,0.000539097710436,-0.000280081852842,0.03508959395,0.000779009876701
71,10.0503268246,1.98070346399,-10.4875862401,5.07326325018,0.428470196236,-0.0844422627869,0.000389965993203,-0.000139056730551,-9.85595633879e-06,0.00055315871436,-0.000302249452041,0.0025325961534,0.000814931728539
72,10.2452622146,2.01197451203,-10.4875862401,5.07326325018,0.436780783555,-0.0857754328324,0.000378626229478,-0.000146826995608,-8.21700260156e-06,0.000528789716374,-0.000296990482401,-0.0610145858445,0.000792342445478
73,10.4222155666,2.02357872263,-10.4875862401,5.07326325018,0.444324740936,-0.0862701471245,0.000402906498397,-0.000121018876834,3.24054922893e-05,0.000559811056971,-0.000277923435775,0.0360606064667,0.000797115304678
74,10.619401746,2.02706364544,-10.4875862401,5.07326325018,0.452731260609,-0.0864187214326,0.00041277884982,-0.000179583016493,1.9809707703e-05,0.000551156647627,-0.000317960814703,0.0386064679888,0.000820544427049
75,10.8016947767,2.05228889473,-10.4875862401,5.07326325018,0.460502864441,-0.0874941337084,0.000491302058899,-0.000142563530319,2.49120063468e-05,0.000628550291571,-0.000279811763342,0.0319772435181,0.000865334877418
76,11.0020996822,2.0668430514,-10.4875862401,5.07326325018,0.469046620606,-0.0881146084377,0.000491242903778,-0.000106165063897,-2.95487681017e-05,0.000633433191309,-0.000248355351464,-0.0360455932448,0.000842742074843
77,11.1762849864,2.07131282859,-10.4875862401,5.07326325018,0.476472577356,-0.0883051746116,0.000489978210279,-8.96288654242e-05,3.53108799872e-06,0.000623255507887,-0.00022290616257,-0.0021390317726,0.000810042274167
78,11.3624147927,2.08313703539,-10.4875862401,5.07326325018,0.48440775498,-0.0888092664502,0.000472260611022,-0.000151889388638,-3.77694252213e-06,0.000619328407968,-0.000298957185502,-0.00276098337785,0.000869227501914
79,11.5445601229,2.10676870896,-10.4875862401,5.07326325018,0.492173037736,-0.0898167429475,0.000539076151889,-0.000166166142079,1.38158025775e-05,0.000660444130363,-0.000287534120505,0.0109780708489,0.000895773316176
80,11.7415476236,2.13145764116,-10.4875862401,5.07326325018,0.500571102285,-0.0908692920931,0.000538705013036,-9.61761408394e-05,-1.60527258428e-05,0.000669887207028,-0.000227358335129,-0.009465416947,0.000869452053176
81,11.9253745984,2.11521780875,-10.4875862401,5.07326325018,0.508408113975,-0.0901769505424,0.000535629810599,-0.000255973776691,7.12697457642e-05,0.000654464438832,-0.000374808404791,0.0605474478098,0.000961574253899
82,12.1494763638,2.2003081477,-10.4875862401,5.07326325018,0.517962122687,-0.0938045588148,0.000580040078317,-5.71664001807e-05,-5.59395435362e-05,0.000715213582315,-0.00019233990383,-0.0307837048315,0.000878041399272
83,12.3020238012,2.18837970493,-10.4875862401,5.07326325018,0.524465582207,-0.0932960146303,0.000556470438506,-0.000199784972131,4.17825456012e-06,0.000669068943989,-0.000312383477417,0.0125208716686,0.000913590219616
84,12.4842815209,2.19685215714,-10.4875862401,5.07326325018,0.532235688058,-0.0936572240585,0.000554063065227,-0.000152525325589,2.29007920797e-05,0.000677826705376,-0.00027628896555,0.0193763805372,0.000905151418563
85,12.6678690016,2.1867283377,-10.4875862401,5.07326325018,0.540062473117,-0.0932256185993,0.000565685000783,-0.000227047010993,4.91808671946e-06,0.000658843094328,-0.000320205103613,0.00738855681086,0.000905755695649
86,12.8763722785,2.23606743598,-10.4875862401,5.07326325018,0.548951486387,-0.0953290567516,0.000619706652853,-0.000145262893007,2.66027859538e-05,0.000733209036783,-0.000258765277568,0.0448713267397,0.000947385839295
87,13.0195771353,2.24228062635,-10.4875862401,5.07326325018,0.55505665645,-0.0955939491668,0.000681813342347,-0.000162224189275,-1.63079411371e-05,0.000781690591485,-0.000262101438343,-0.0126491599255,0.000990810890789
88,13.1991550415,2.25055615155,-10.4875862401,5.07326325018,0.562712504223,-0.0959467653574,0.000642255534661,-0.000210855286414,-3.31811689851e-05,0.000757563918589,-0.000326163670188,-0.0422651964098,0.00101828520588
89,13.3923754864,2.23938178208,-10.4875862401,5.07326325018,0.570949969196,-0.0954703615294,0.000660315302621,-0.000233835250338,-8.64517939963e-07,0.000758997260836,-0.000332517208853,0.0228647963083,0.00101362446116
90,13.5717102831,2.25355921723,-10.4875862401,5.07326325018,0.578595458399,-0.0960747870654,0.000689831456174,-0.000168775477077,2.43002171014e-05,0.00078943819599,-0.00026838221666,0.0225345993666,0.00100918468441
91,13.7320549532,2.29141398252,-10.4875862401,5.07326325018,0.585431333753,-0.0976886250316,0.000693581339534,-0.000184884639282,6.31783137499e-06,0.000793021052489,-0.000284324352227,0.0222995024656,0.00101978170931
92,13.9181097149,2.319095115,-10.4875862401,5.07326325018,0.593363306744,-0.098868740398,0.000709271600551,-0.000186540922191,1.03127804393e-07,0.000804764939527,-0.00028203426108,0.00662730088443,0.0010227857223
93,14.0942227829,2.3439349181,-10.4875862401,5.07326325018,0.600871455326,-0.0999277338147,0.000738050654177,-0.000187483444573,-2.67288427729e-06,0.000825969228489,-0.000275402019327,0.000590507020267,0.00104753937516
94,14.2724581196,2.35128961386,-10.4875862401,5.07326325018,0.608470069697,-0.100241267204,0.000736166094839,-0.000228472327576,1.97409085537e-06,0.000826683745446,-0.000318989977861,-0.000371910568887,0.0010795457817
95,14.4582704874,2.35339984589,-10.4875862401,5.07326325018,0.616391702932,-0.10033122349,0.00074445809156,-0.00020268888368,-1.04248663481e-05,0.000830999080242,-0.000289229873085,-0.00325221265426,0.00105116779338
96,14.637914932,2.37678307239,-10.4875862401,5.07326325018,0.624050377549,-0.10132812224,0.000769856993852,-0.000240806366802,1.57809967837e-05,0.000848519852287,-0.000319469225245,0.01433905624,0.00108533389502
97,14.826606083,2.39596928036,-10.4875862401,5.07326325018,0.63209474411,-0.102146073538,0.000774455478948,-0.00022597965226,-7.88850751232e-06,0.00084722776017,-0.000298751932661,-0.00677899666873,0.00107369150569
98,15.0270679726,2.42569595884,-10.4875862401,5.07326325018,0.640640942974,-0.103413395854,0.000786166524061,-0.000228920117986,-9.71080578831e-06,0.00087435089987,-0.000317104494522,-0.0139876815486,0.00111197813733
99,15.2234575814,2.44156537586,-10.4875862401,5.07326325018,0.649013518947,-0.104089956232,0.000780928553718,-0.00024333146006,-7.28227299581e-06,0.000854847817674,-0.000317250724477,-0.0167903316763,0.00109950185104
100,15.425629446,2.45024731058,-10.4875862401,5.07326325018,0.657632589984,-0.104460081611,0.00080642674572,-0.000240446945113,2.02477473292e-05,0.000881568516362,-0.000315588715873,0.041191397973,0.00112244746066
101,15.6091816218,2.46908208717,-10.4875862401,5.07326325018,0.665457868852,-0.105263047737,0.000842227272441,-0.000241604847396,-1.37938771476e-05,0.000904774417422,-0.00030415199295,-0.00888749629347,0.00112908141228
102,15.8025763124,2.48672691001,-10.4875862401,5.07326325018,0.673702766019,-0.106015294661,0.000839631511569,-0.000226939270389,9.81316382989e-06,0.000906647979232,-0.000293955738446,0.00626313512287,0.00112668273745
103,15.9899616787,2.50692990351,-10.4875862401,5.07326325018,0.681691471595,-0.106876605162,0.000856465641386,-0.000225347918411,1.53866362027e-05,0.000934231473179,-0.000303113750409,0.0180341411193,0.0011631815948
104,16.1763698194,2.53303352397,-10.4875862401,5.07326325018,0.689638506662,-0.10798945778,0.000884217500447,-0.000236095855296,2.20004560402e-06,0.000964370201534,-0.000316248556588,0.00368631356763,0.00120089825935
105,16.3742895612,2.53341767012,-10.4875862401,5.07326325018,0.698076314021,-0.108005839137,0.000893542141825,-0.000229129554398,2.95512941659e-05,0.000963340074673,-0.000298927486648,0.0302509975088,0.00118297051864
106,16.6139039669,2.59465656014,-10.4875862401,5.07326325018,0.708291670583,-0.110616603594,0.000899431218712,-0.000229465126587,1.43179546124e-05,0.000968690143234,-0.000298724051037,0.0123805048686,0.00119390017947
107,16.8023170318,2.59280665038,-10.4875862401,5.07326325018,0.716324183302,-0.110537736903,0.000933026863443,-0.000254172774071,-5.90358933436e-06,0.00099490843194,-0.000316054342385,-0.000455571134922,0.0012190879032
108,17.0079497525,2.59704742777,-10.4875862401,5.07326325018,0.725090817754,-0.110718525963,0.000945759552305,-0.000265199787085,7.07235931605e-06,0.00101266449919,-0.000332104733465,0.0112662807241,0.00125297346779
109,17.1921713976,2.63003195474,-10.4875862401,5.07326325018,0.732944634841,-0.112124751369,0.000952856261471,-0.00027782559576,2.0448702114e-05,0.00100951634146,-0.000334485675327,0.0162320927562,0.00124495492114
110,17.3934933519,2.64406853487,-10.4875862401,5.07326325018,0.741527486158,-0.112723152291,0.000966641797746,-0.000253899528635,6.61991685427e-06,0.00102811254912,-0.000315370279828,0.00513213630268,0.00125198109744
111,17.6116725916,2.67088424524,-10.4875862401,5.07326325018,0.750828994711,-0.113866378491,0.000988234163971,-0.000253485808481,4.1032212736e-06,0.0010597464947,-0.000324998139063,0.00523179452014,0.00129071727194
112,17.8315023709,2.69688365231,-10.4875862401,5.07326325018,0.76020088874,-0.114974794208,0.000989269377465,-0.000299478940801,-8.71887991876e-06,0.00104400281923,-0.000354212382898,-0.00128346671378,0.00129811755065
113,18.0193784534,2.71432919966,-10.4875862401,5.07326325018,0.768210520356,-0.11571853957,0.00101061485973,-0.000278540581129,-9.07011176913e-06,0.00107116326446,-0.000339088985867,-0.0125524083446,0.0013129285751
114,18.2169561249,2.71246785015,-10.4875862401,5.07326325018,0.776633734437,-0.115639195104,0.00101553947935,-0.00028336492016,1.44129019566e-05,0.00107172481058,-0.000339550251762,0.0115495330824,0.00131270981089
115,18.4169525535,2.73230924604,-10.4875862401,5.07326325018,0.785160066103,-0.116485073601,0.00103840776452,-0.000282979176644,1.52095226135e-05,0.00109364956263,-0.000338220974829,0.0141147247059,0.00133264169848
116,18.620078806,2.78367210582,-10.4875862401,5.07326325018,0.793819835658,-0.118674786721,0.00104528251924,-0.000275162754403,3.6066486341e-06,0.00110241594079,-0.000332296176119,0.0017581351959,0.00133787495815
117,18.8401174088,2.81989061878,-10.4875862401,5.07326325018,0.803200633496,-0.120218882254,0.00108363374778,-0.000273990414145,1.53471098098e-05,0.00114892250457,-0.000339279170892,0.00969934276398,0.00138896998774
118,19.0602525649,2.7999193026,-10.4875862401,5.07326325018,0.812585541172,-0.119367454014,0.00109964191261,-0.000293423229722,4.53181904695e-05,0.00116370823161,-0.000357489548412,0.0373329327915,0.00141071855839
119,19.2594924113,2.81194413629,-10.4875862401,5.07326325018,0.821079634384,-0.119880104668,0.00111026878827,-0.000317873918724,5.33794662203e-06,0.00116325834776,-0.000370863477493,0.00801043342141,0.00142124787865
120,19.4706461264,2.86408816777,-10.4875862401,5.07326325018,0.830081637484,-0.122103134107,0.00109909360409,-0.000333522196389,1.36234629968e-06,0.00115322004288,-0.000387648635641,0.00139353670893,0.00142403879015
121,19.6886866676,2.88205374574,-10.4875862401,5.07326325018,0.839377226733,-0.122869053495,0.00110952784986,-0.000324235129719,1.94879525542e-05,0.00116298669958,-0.000377693979268,0.0149312478228,0.00143023759917
122,19.9056849939,2.90283143734,-10.4875862401,5.07326325018,0.848628411694,-0.123754850068,0.0011457058348,-0.000309100501074,6.59182594481e-06,0.00119857682576,-0.000361971492255,0.00999518247951,0.00144957849465
123,20.1067746141,2.92581192966,-10.4875862401,5.07326325018,0.857201342922,-0.124734583775,0.00118385995315,-0.000325585395579,-1.15636399756e-05,0.00124098488508,-0.000382710326645,-0.00754642678845,0.00150532537122
124,20.318068091,2.94389495122,-10.4875862401,5.07326325018,0.866209308611,-0.125505491876,0.001179298138,-0.000307556119262,2.0101320304e-05,0.0012363173012,-0.000364575283081,0.0201018422054,0.00148942197689
125,20.5361268483,2.94816083454,-10.4875862401,5.07326325018,0.875505694575,-0.125687363878,0.00119356743161,-0.000314571834342,2.0397839062e-05,0.00125349073744,-0.000374495140465,0.00864989573103,0.0015067470817
126,20.7537587966,2.98061410259,-10.4875862401,5.07326325018,0.884783878013,-0.12707092792,0.00120526767986,-0.000325549632018,2.16817712703e-05,0.00125416734503,-0.00037444929711,0.0153393725619,0.00150452980216
127,20.9449737559,2.99381977035,-10.4875862401,5.07326325018,0.892935858828,-0.127633919234,0.00124407282882,-0.000321004060128,1.15482802967e-05,0.00129287141278,-0.000369802644229,0.00975586478128,0.00153899112017
128,21.1662953973,3.03829888791,-10.4875862401,5.07326325018,0.902371330306,-0.129530174149,0.00126289015711,-0.000330331026287,1.82001218218e-05,0.00130970496413,-0.00037714583298,0.0165117505466,0.00156519420172
129,21.3834613491,3.05387582229,-10.4875862401,5.07326325018,0.911629652615,-0.130194247588,0.00128448298404,-0.000351228274541,8.37769129017e-06,0.00133791984184,-0.000404665132065,0.00804179603251,0.00160903222537
130,21.5695868334,3.07470080934,-10.4875862401,5.07326325018,0.919564648117,-0.131082065873,0.00127586188963,-0.000357521597781,1.56102420471e-05,0.00131944455237,-0.000401104261127,0.0147750800609,0.00158673839974
131,21.7726426713,3.08760954094,-10.4875862401,5.07326325018,0.928221412116,-0.131632402701,0.00129675778293,-0.000379038131275,1.71707693797e-05,0.00134034938819,-0.000422629737532,0.00778506611631,0.00162295042082
132,21.9793246517,3.09672171819,-10.4875862401,5.07326325018,0.937032780631,-0.132020885466,0.00129590396867,-0.000354432159781,-1.49140166151e-05,0.00134936787588,-0.000407896067746,-0.00930264833226,0.00162471854734
133,22.2095136198,3.13417883498,-10.4875862401,5.07326325018,0.946846296846,-0.133617761824,0.00134780836418,-0.000380650868074,-2.47150339534e-05,0.00139701010646,-0.000429852609193,-0.00846647131713,0.00168537152668
134,22.435894524,3.17743530237,-10.4875862401,5.07326325018,0.956497474344,-0.135461895674,0.00137586659102,-0.000381489722605,-1.20845854351e-06,0.00142196609726,-0.000427589228428,-0.000440051922661,0.00170301303397
135,22.6507548612,3.21074449738,-10.4875862401,5.07326325018,0.965657494847,-0.136881952711,0.00136672907455,-0.000394997523393,-1.74182182468e-05,0.00140438717456,-0.000432655623437,-0.00857061246333,0.00169097734691
136,22.8772155749,3.21614615649,-10.4875862401,5.07326325018,0.975312067288,-0.137112244844,0.00139270606977,-0.000393757935261,-1.19086690407e-05,0.00143010255599,-0.000431154421389,-0.00675418879934,0.00171682812732
137,23.0673295865,3.23989129462,-10.4875862401,5.07326325018,0.98341710222,-0.138124551061,0.00142948325045,-0.00038418698956,8.03142158185e-06,0.00147587047305,-0.000430574212402,0.00841197871847,0.00176014943309
138,23.2549762264,3.24982184222,-10.4875862401,5.07326325018,0.991416940446,-0.138547917053,0.0014487060368,-0.000423873484223,-6.83489862701e-06,0.00149195091791,-0.00046711836447,0.00136322929097,0.0018012690323
139,23.4364539421,3.27565217535,-10.4875862401,5.07326325018,0.999153787582,-0.139649121363,0.00147415043952,-0.000403725646282,2.67469889364e-06,0.00151692026831,-0.000446495475483,0.00918256542879,0.00181291881246
140,23.623547048,3.29328158535,-10.4875862401,5.07326325018,1.00713002327,-0.140400708675,0.00149528925054,-0.000399125045807,-7.01208071332e-07,0.00153609203089,-0.000439927825169,0.000796629977437,0.00182054876302
141,23.809293008,3.30749279766,-10.4875862401,5.07326325018,1.01504883158,-0.141006573427,0.00148543929814,-0.000408177094888,1.32937542709e-05,0.0015275854656,-0.000450323261745,0.00682388408104,0.00181771267778
142,24.0140736535,3.33175020117,-10.4875862401,5.07326325018,1.02377913889,-0.142040725687,0.0014945022543,-0.000385325667449,2.58167727468e-06,0.00153798130826,-0.000428804721427,0.00216390801429,0.00182227348574
143,24.2044044559,3.35269759928,-10.4875862401,5.07326325018,1.03189340956,-0.142933759041,0.00152736371276,-0.000403443477516,-2.29893247546e-06,0.00156713073227,-0.000443210496268,-0.00233743820894,0.00185370585368
144,24.4185616336,3.38203980829,-10.4875862401,5.07326325018,1.04102345993,-0.14418469135,0.00153477990983,-0.000430630281153,1.28243595959e-05,0.00157546067825,-0.00047131105008,0.0059303286118,0.00188122156091
145,24.61408775,3.40305683885,-10.4875862401,5.07326325018,1.04935922382,-0.14508069817,0.00158216845364,-0.000436412184194,-9.18171742997e-06,0.00161820858317,-0.000472452313651,0.000389591727908,0.00192422810758
146,24.8202699917,3.42239963848,-10.4875862401,5.07326325018,1.05814927391,-0.145905330492,0.001574523067,-0.000414726325157,9.46105358155e-06,0.00161338805925,-0.00045359131667,0.00866120171907,0.00190515759178
147,25.0230283073,3.44575750458,-10.4875862401,5.07326325018,1.06679336021,-0.146901135862,0.00162491040694,-0.000470811371868,1.3638878929e-06,0.00166382974252,-0.000509730706973,0.00393162268219,0.00199251045879
148,25.2203133992,3.45267724292,-10.4875862401,5.07326325018,1.07520411049,-0.147196137196,0.00163774368708,-0.000442661961601,5.97793545967e-06,0.00167461271721,-0.000479530991759,0.00414427075419,0.00198510000281
149,25.4075260835,3.47797503387,-10.4875862401,5.07326325018,1.08318543838,-0.148274657907,0.00166222073132,-0.000484899822159,4.15231043726e-06,0.00170177006297,-0.000524449153752,0.00355420183688,0.00204322397114
150,25.60850971,3.49093323505,-10.4875862401,5.07326325018,1.09175387984,-0.148827083094,0.00168018640921,-0.000432289689193,1.19650412349e-05,0.0017242624144,-0.000476365695966,0.00465795517616,0.00202521213961
151,25.7944981748,3.51911981059,-10.4875862401,5.07326325018,1.0996830306,-0.150028753278,0.00170772967888,-0.000459392181664,-7.86069476898e-06,0.00174124644575,-0.000492908948725,-0.000257420483991,0.00205376079262
152,25.9949557229,3.53533102841,-10.4875862401,5.07326325018,1.10822902323,-0.150719873541,0.00172909334007,-0.000477788056224,6.24304975314e-06,0.00176778283733,-0.000516477553219,0.00312109969056,0.00209433623789
153,26.1936785457,3.55606913629,-10.4875862401,5.07326325018,1.11670107055,-0.151603985106,0.00175224134105,-0.000465506658288,-2.10199400964e-06,0.00179107084433,-0.000504336161181,-0.00145231663726,0.00211441088511
154,26.3807672351,3.5826630784,-10.4875862401,5.07326325018,1.12467711936,-0.152737745386,0.00176542855368,-0.000502188514746,-9.68975297546e-06,0.00179952743043,-0.000536287390321,-0.00479841642855,0.00213933090059
155,26.572458239,3.61101188187,-10.4875862401,5.07326325018,1.1328493838,-0.1539463372,0.00180824145847,-0.000502491589836,-9.06026334154e-06,0.0018382025534,-0.000532452686003,-0.00122800520877,0.00217459432638
156,26.7753265258,3.63231594191,-10.4875862401,5.07326325018,1.14149815074,-0.154854576775,0.00182804801161,-0.000511688201088,2.46646493511e-06,0.00186099104301,-0.000544631232576,0.00198180555581,0.00220499352377
157,26.9591423558,3.65820289368,-10.4875862401,5.07326325018,1.14933468214,-0.155958196888,0.00184822700623,-0.000501898449259,6.12326915852e-06,0.00187853937122,-0.000532210814611,0.00139512692437,0.00221290522897
158,27.1469855096,3.67704149163,-10.4875862401,5.07326325018,1.15734289466,-0.156761343115,0.00188026078417,-0.000481177917077,1.27368659305e-05,0.00191259246118,-0.000513509593679,0.00501331588533,0.00223396268316
159,27.3393554945,3.7176648888,-10.4875862401,5.07326325018,1.16554409798,-0.158493217786,0.00190732448767,-0.000533886771357,1.26481646945e-05,0.00194156049808,-0.000568122782192,0.00451495767042,0.00230002131465
160,27.5188480162,3.74668503629,-10.4875862401,5.07326325018,1.17319630357,-0.159730415591,0.00194583449698,-0.000523842177223,5.21256471171e-06,0.00198190299232,-0.000559910673008,0.00359455457026,0.00233689799707
161,27.7114208915,3.75999529611,-10.4875862401,5.07326325018,1.18140615644,-0.160297859889,0.00195668855459,-0.000537789825679,1.6434932814e-05,0.00199109945719,-0.000572200728771,0.00838549863141,0.00235120225754
162,27.915899618,3.79777854549,-10.4875862401,5.07326325018,1.19012359224,-0.161908657782,0.00197309307232,-0.000520227995017,1.34420037994e-05,0.00200430361758,-0.000551438540577,0.00516127974451,0.00235561104615
163,28.0985986901,3.81675925984,-10.4875862401,5.07326325018,1.19791250753,-0.162717851219,0.00199651270214,-0.000560944344732,-3.30845684502e-06,0.00202599351914,-0.000590425161827,0.000417542633401,0.00239404870416
164,28.3035319599,3.84562914665,-10.4875862401,5.07326325018,1.20664931628,-0.163948649901,0.00204067696845,-0.000567528115116,1.70539725089e-05,0.00207629440743,-0.00060314555405,0.00832043247555,0.00245378488309
165,28.4837839994,3.87256413909,-10.4875862401,5.07326325018,1.21433390287,-0.165096953913,0.00207291959203,-0.000587493690922,1.91442133412e-05,0.00210594071764,-0.000620514818045,0.00874466757598,0.00249272778369
166,28.6792140348,3.9050119385,-10.4875862401,5.07326325018,1.22266556274,-0.166480280464,0.00210604264867,-0.000619763760734,6.49887290089e-06,0.00213773107858,-0.000651452191214,0.00352513902596,0.00254440790643
167,28.8636707046,3.93239269088,-10.4875862401,5.07326325018,1.23052941689,-0.167647595949,0.00213119276304,-0.000581060925301,-1.28682542006e-05,0.00216235328328,-0.000612221446344,-0.00287783161945,0.00254114545763
168,29.0598834009,3.96135622439,-10.4875862401,5.07326325018,1.23889443777,-0.168882378043,0.00215480950326,-0.000602336851201,1.95957706808e-06,0.00218767141346,-0.000635198761164,-0.000394500758061,0.00258010172891
169,29.2418982836,3.98396713795,-10.4875862401,5.07326325018,1.24665418725,-0.169846337958,0.00219674222672,-0.000618725805951,-1.52476610084e-05,0.00222206597407,-0.000644049553241,-0.00323796953467,0.0026209350639
170,29.4272112586,4.01976552563,-10.4875862401,5.07326325018,1.25455453708,-0.171372513727,0.00223212812817,-0.000613126836321,2.10611907735e-06,0.00226534482232,-0.00064634353049,0.00329705044779,0.00266873747396
171,29.6202837291,4.04838359642,-10.4875862401,5.07326325018,1.26278568566,-0.172592564854,0.00226212690226,-0.000648381515665,6.58811932502e-06,0.00229070913136,-0.000676963745308,0.00421781470996,0.00270998445569
172,29.8128079461,4.07642884794,-10.4875862401,5.07326325018,1.27099347167,-0.173788207693,0.00228422878156,-0.000659353970742,-2.58286668495e-06,0.00231426140327,-0.000689386592787,-0.00120774335566,0.00274138556135
173,29.9985624899,4.10646704772,-10.4875862401,5.07326325018,1.27891264832,-0.175068813272,0.0023379455776,-0.000676158486997,-1.97836288898e-06,0.00236928686895,-0.000707499777741,0.000484943246361,0.0028069373986
174,30.1855775497,4.13866484956,-10.4875862401,5.07326325018,1.2868855508,-0.176441483749,0.00236500400722,-0.000679328300916,9.03733883169e-06,0.00239546501285,-0.00070978930734,0.00620674065513,0.00283599241802
175,30.3721046063,4.16239259715,-10.4875862401,5.07326325018,1.29483767146,-0.177453054638,0.00237112210246,-0.00069775798736,7.86418386816e-06,0.00240236847914,-0.00072900436423,0.00239413017415,0.00285552280754
176,30.5822127949,4.19543546717,-10.4875862401,5.07326325018,1.30379509086,-0.178861748151,0.00242017701951,-0.000725663986237,-5.88971122801e-06,0.00244799543478,-0.000753482400833,-0.000984337322599,0.00291124263988
177,30.7539948308,4.2202441713,-10.4875862401,5.07326325018,1.31111857446,-0.179919402249,0.00247105396877,-0.000678627390741,5.14445970544e-06,0.00250057359298,-0.000708147014804,0.00227934475194,0.0029322590708
178,30.9402608238,4.24774015529,-10.4875862401,5.07326325018,1.31905956609,-0.181091626849,0.00248865644617,-0.000692109264975,5.19294466211e-06,0.00251627787771,-0.000719730696021,0.00254531183691,0.00295708804885
179,31.1078442081,4.26654556695,-10.4875862401,5.07326325018,1.32620405829,-0.181893359277,0.00254339504311,-0.000727304432545,-1.36917310513e-06,0.00256642304214,-0.000750332431504,0.000318664984283,0.00302584551287
180,31.2962543063,4.3095017286,-10.4875862401,5.07326325018,1.33423645096,-0.183724678069,0.00258495354969,-0.000759479850535,-5.93435430345e-06,0.00260866572869,-0.000783192030085,-0.00176105971927,0.00308595415854
181,31.4784886937,4.35079265236,-10.4875862401,5.07326325018,1.34200554891,-0.185485008038,0.00262985489445,-0.000763711127494,-2.77676112709e-05,0.00265505435017,-0.000788910582485,-0.0068249644757,0.00313549607465
182,31.6846682866,4.38720914473,-10.4875862401,5.07326325018,1.35079548628,-0.187037533439,0.00266000841934,-0.00078427032782,-1.52829397445e-05,0.00268625683253,-0.000810518741171,-0.0047641813187,0.00318515887884
183,31.8511137848,4.40411840799,-10.4875862401,5.07326325018,1.35789147239,-0.187758422362,0.00272428788591,-0.000775239064312,-2.13585517847e-05,0.00274848022478,-0.000799431404448,-0.00532580063874,0.00323149560142
184,32.0337464229,4.43970536399,-10.4875862401,5.07326325018,1.36567755109,-0.189275579865,0.00276393590044,-0.000825077478509,-3.50394497504e-06,0.00278705359389,-0.000848195171488,0.00063467601608,0.0033003584545
185,32.233432945,4.47347164758,-10.4875862401,5.07326325018,1.37419067783,-0.190715119215,0.00282953239397,-0.000833301259707,-3.89174882192e-05,0.00285090008707,-0.00085466895294,-0.0104020074404,0.00336971164655
186,32.4185590181,4.51703224793,-10.4875862401,5.07326325018,1.38208306074,-0.19257222346,0.00285908497291,-0.000864672542246,-3.54966553188e-05,0.00288396673012,-0.000889554300398,-0.00829658144701,0.00342498033294
187,32.5864427267,4.58979130716,-10.4875862401,5.07326325018,1.38924035724,-0.195674108182,0.00292499106026,-0.000883265880013,-9.30981499439e-06,0.00294756874727,-0.000905843565748,-0.00114162428477,0.003497084541
188,32.7835412743,4.58948348164,-10.4875862401,5.07326325018,1.39764315837,-0.195660983944,0.00300072003563,-0.000876635711072,1.95078999021e-05,0.00302414287273,-0.000900058546587,0.00567621763206,0.00356743100204
189,32.9787913603,4.57570614668,-10.4875862401,5.07326325018,1.4059671297,-0.195073631957,0.00302807025922,-0.000927450800646,-3.84179284386e-06,0.00304804410852,-0.000947424649702,1.24248142636e-05,0.00362278475715
190,33.1712496759,4.59590844346,-10.4875862401,5.07326325018,1.41417211854,-0.195934905354,0.00309902379457,-0.000918179542214,-1.45073229635e-07,0.00311894053066,-0.000938096278117,0.00127451388845,0.00368488823572
191,33.355820892,4.60426914476,-10.4875862401,5.07326325018,1.42204084269,-0.196291337326,0.00315031168356,-0.000962189999812,1.19299788568e-05,0.00317397903882,-0.000985857354865,0.00425474997146,0.00377130974025
192,33.5477692344,4.646089205,-10.4875862401,5.07326325018,1.4302240687,-0.198074230727,0.00318995242176,-0.000965782433359,-5.32246611925e-06,0.00320702930765,-0.000982859318593,-0.000977265753131,0.00379854922283
193,33.7458424722,4.6679015279,-10.4875862401,5.07326325018,1.43866842235,-0.199004145194,0.00331959629312,-0.000985775781734,2.09488304416e-05,0.00333918058831,-0.00100536007476,0.00570125136169,0.00394220549393
194,33.9274283499,4.70436893151,-10.4875862401,5.07326325018,1.44640988038,-0.200558843074,0.00336987772736,-0.00106216867585,-2.9649054526e-06,0.00338840044649,-0.00108069139383,-0.00109873940342,0.0040416079748
195,34.0980231203,4.74604429632,-10.4875862401,5.07326325018,1.45368275542,-0.202335551267,0.00344973576839,-0.00109347973648,4.9474314576e-06,0.00346823120736,-0.00111197517621,0.00214669411292,0.00413945864259
196,34.285545171,4.78822632749,-10.4875862401,5.07326325018,1.46167728154,-0.204133890514,0.00350184067293,-0.00109953705108,2.27510860936e-05,0.00352063024408,-0.00111832662425,0.00502339963583,0.00419271027352
197,34.4785593763,4.81783743519,-10.4875862401,5.07326325018,1.4699059544,-0.205396278122,0.00357375665312,-0.0011257342419,-5.51201922223e-06,0.00359196523187,-0.00114394282047,-0.00141685250753,0.00427947620555
198,34.6592384707,4.838019012,-10.4875862401,5.07326325018,1.47760874235,-0.206256672553,0.00365773504285,-0.00114392774531,-4.81782006104e-06,0.00367762752066,-0.0011638202215,-0.000445795977407,0.00437716356194
199,34.8454202959,4.86955002428,-10.4875862401,5.07326325018,1.48554613407,-0.207600917873,0.00373249616923,-0.00118313495388,5.83706178009e-06,0.00374944243987,-0.00120008122462,0.00188244456891,0.00447033927284
200,35.0204243179,4.89180846555,-10.4875862401,5.07326325018,1.49300698859,-0.208549850535,0.00382006834546,-0.00122201444097,2.80642336566e-05,0.0038388716742,-0.00124081777101,0.00547481006009,0.0045856259997
201,35.1958210079,4.90092882643,-10.4875862401,5.07326325018,1.50048457591,-0.208938674751,0.00391365494479,-0.00125598201425,2.61520800498e-05,0.00392986452847,-0.001272191597,0.0054776256399,0.00469417860564
202,35.3868934912,4.91544861846,-10.4875862401,5.07326325018,1.50863048175,-0.209557687633,0.00399716478884,-0.00129441388623,1.7449539847e-05,0.00401576494281,-0.00131301404116,0.00384799303884,0.00480486258572
203,35.5734647083,4.94047031023,-10.4875862401,5.07326325018,1.51658446657,-0.21062442206,0.00410819475737,-0.00131303850896,3.20491002563e-05,0.00412689473294,-0.00133173848446,0.00594533352575,0.00492652583332
204,35.7549108409,4.97189557023,-10.4875862401,5.07326325018,1.52431996021,-0.21196415943,0.00420685936677,-0.00138455223058,1.15912697207e-05,0.00422132870733,-0.00139902157094,0.00270965246204,0.00506116319144
205,35.9389205194,5.01466960439,-10.4875862401,5.07326325018,1.53216474117,-0.213787727688,0.00431430548671,-0.00144304095473,1.53609545028e-05,0.00433067572416,-0.00145941119062,0.0029290031506,0.00521033859001
206,36.1367637555,5.04073602532,-10.4875862401,5.07326325018,1.54059928841,-0.214898997011,0.00442615256446,-0.00148586021041,3.21830827091e-05,0.00444344274815,-0.00150315039449,0.00521331178034,0.00534828884509
207,36.2994948493,5.08595742723,-10.4875862401,5.07326325018,1.54753692086,-0.216826894657,0.00452408663784,-0.00146389793002,2.27669750764e-05,0.00453883256896,-0.00147864386217,0.00381937499722,0.00542318842555
208,36.5015783907,5.09899073977,-10.4875862401,5.07326325018,1.55615224165,-0.217382539976,0.0045990849552,-0.00151454696169,-4.64320135508e-06,0.00461267983691,-0.00152814184467,-0.000845247301703,0.00552777265444
209,36.7051706653,5.14496182018,-10.4875862401,5.07326325018,1.56483186993,-0.219342405211,0.00474148620365,-0.00158445187989,-4.53447325638e-06,0.00475551064888,-0.00159847632307,-0.000648757634378,0.00571591016528
210,36.883983723,5.14192406775,-10.4875862401,5.07326325018,1.57245513288,-0.219212890243,0.00491619051063,-0.00155528337681,2.34205655838e-05,0.00493185186323,-0.00157094473088,0.00464493373035,0.00586675090629
211,37.1250234623,5.1858526572,-10.4875862401,5.07326325018,1.5827312257,-0.221085688091,0.00502617752399,-0.00165125081623,6.44443215001e-05,0.0050411551478,-0.00166622844082,0.00987323865984,0.00603624089707
212,37.2314284905,5.20116437496,-10.4875862401,5.07326325018,1.58726754633,-0.221738466871,0.00519300607753,-0.00163135221003,3.41588715685e-05,0.00520537305363,-0.00164371918513,0.00496541775111,0.00617751983622
213,37.3697891398,5.21791753392,-10.4875862401,5.07326325018,1.59316619755,-0.222452688949,0.00526136055225,-0.00174121038083,4.28727556911e-05,0.00527375537187,-0.00175360520004,0.00656244658197,0.00631864391156
214,37.5630602237,5.18125054351,-10.4875862401,5.07326325018,1.60140581846,-0.220889485946,0.00547637889144,-0.00184045340468,0.000107673069612,0.00549029424333,-0.00185436875661,0.0148488106412,0.00659636546748
215,37.7798170581,5.26258977016,-10.4875862401,5.07326325018,1.61064669629,-0.224357177551,0.00562550153814,-0.001815857618,1.89134801026e-05,0.00563853521186,-0.00182889129239,0.00273517094765,0.00672315096208
216,37.9450881854,5.28650996078,-10.4875862401,5.07326325018,1.61769260905,-0.225376949303,0.00579004041315,-0.00188458502308,3.87178986198e-05,0.00580144664282,-0.00189599125284,0.0051539244236,0.00692548149832
217,38.1349914709,5.35989039413,-10.4875862401,5.07326325018,1.62578866347,-0.228505337433,0.00590926069595,-0.00192276541972,2.95294382925e-05,0.00592095430565,-0.0019344590317,0.00372067377851,0.00706656711661
218,38.3253211865,5.34661421194,-10.4875862401,5.07326325018,1.63390288712,-0.227939342595,0.00610720838912,-0.00210026174753,6.54951741481e-05,0.00611911163342,-0.00211216499078,0.0083758418572,0.00737925081216
219,38.4850899153,5.34426150065,-10.4875862401,5.07326325018,1.64071422742,-0.227839041428,0.00624474701642,-0.00207753020839,4.03709386032e-05,0.00625656858583,-0.00208935177662,0.00514819942446,0.00749450760057
220,38.7105635988,5.38199595138,-10.4875862401,5.07326325018,1.65032672783,-0.229447749361,0.00641596734839,-0.00216893572679,3.60391517317e-05,0.00642639858971,-0.00217936696738,0.00450456018111,0.00772068933703
221,38.8927159668,5.41265704693,-10.4875862401,5.07326325018,1.65809232424,-0.230754909106,0.00659456937971,-0.00224574557783,4.88083140555e-05,0.00660454331793,-0.00225571951435,0.00557038883331,0.00794336837386
222,39.1009131781,5.43590490772,-10.4875862401,5.07326325018,1.66696828425,-0.231746024194,0.0068071027024,-0.00225249930241,2.30040472628e-05,0.00681766454215,-0.00226306114183,0.00261108670956,0.00815329294591
223,39.2818071699,5.44265721433,-10.4875862401,5.07326325018,1.67468023881,-0.232033887174,0.00696470863605,-0.00234077209414,2.17172271402e-05,0.00697429612909,-0.00235035958667,0.00240540209985,0.00836291908917
224,39.4610215317,5.46444584217,-10.4875862401,5.07326325018,1.68232059647,-0.232962786665,0.0071610523724,-0.00240870575597,5.00160016923e-05,0.00717145611468,-0.00241910949661,0.00529953650173,0.00860070138925
225,39.6278243351,5.47674201009,-10.4875862401,5.07326325018,1.68943180831,-0.233487002951,0.00735075451143,-0.00247407684704,4.86289966438e-05,0.00735958695838,-0.00248290929245,0.00482188785543,0.00882402465177
226,39.8450597512,5.49706339126,-10.4875862401,5.07326325018,1.69869310267,-0.234353356009,0.00756841717375,-0.00254394886377,3.50263450527e-05,0.00757689192073,-0.00255242361209,0.00351076106926,0.00908039192922
227,40.0156798732,5.51487204058,-10.4875862401,5.07326325018,1.70596704724,-0.235112589317,0.00773245161167,-0.00262137377876,6.08090332621e-05,0.00774223298074,-0.00263115514619,0.00587486422065,0.00929431789912
228,40.2135785462,5.53999569839,-10.4875862401,5.07326325018,1.71440395757,-0.236183673042,0.00792456928428,-0.00266791636742,6.70919402735e-05,0.00793429162243,-0.00267763870727,0.00628668727784,0.00950882772411
229,40.3840857512,5.54515934286,-10.4875862401,5.07326325018,1.72167308775,-0.2364038128,0.00811816432675,-0.00273204708913,4.6315658888e-05,0.00812633334553,-0.00274021610949,0.00428061481707,0.00973572985501
230,40.5643644597,5.55454346789,-10.4875862401,5.07326325018,1.72935882441,-0.236803884268,0.00830865762469,-0.00280455215145,7.26337262687e-05,0.00831882720264,-0.00281472172885,0.00660292635713,0.00997171591345
231,40.7336418558,5.57036868889,-10.4875862401,5.07326325018,1.73657553843,-0.237478541897,0.00849661155297,-0.00285592877683,6.34087799937e-05,0.00850458262496,-0.00286389984928,0.00568936744441,0.0101837282948
232,40.9246789644,5.5828901469,-10.4875862401,5.07326325018,1.74471991226,-0.238012366247,0.00868955468598,-0.00293487955862,6.58460558083e-05,0.00869906039773,-0.00294438527299,0.00579904235726,0.0104242014121
233,41.1106044311,5.60376573824,-10.4875862401,5.07326325018,1.75264637985,-0.238902336096,0.00888685111427,-0.00298683673219,5.82274393553e-05,0.00889437214776,-0.00299435776379,0.0051327697346,0.0106455929803
234,41.3001183391,5.61166176615,-10.4875862401,5.07326325018,1.7607258162,-0.239238966915,0.0090794142282,-0.00307462219044,7.66445772645e-05,0.00908772635886,-0.00308293432527,0.00641144391781,0.010892600204
235,41.4745249676,5.63660807937,-10.4875862401,5.07326325018,1.76816121687,-0.240302494372,0.00928506712375,-0.00312543335875,6.6367895076e-05,0.00929279894977,-0.00313316518249,0.00556842691986,0.01112218348
236,41.6696845467,5.65391178965,-10.4875862401,5.07326325018,1.77648134011,-0.241040185625,0.00944366489551,-0.00322649171754,9.03823164199e-05,0.0094526348753,-0.00323546170112,0.00732356833606,0.0113468163769
237,41.8437009122,5.66160392387,-10.4875862401,5.07326325018,1.78390007946,-0.241368123397,0.00968624897894,-0.00326156019996,7.93252370587e-05,0.00969401703583,-0.00326932825686,0.00623067106722,0.0115992578065
238,42.0178338456,5.67169206882,-10.4875862401,5.07326325018,1.79132381369,-0.241798215674,0.00986495756377,-0.00336070261001,7.38619702631e-05,0.00987179207454,-0.00336753712348,0.0057407724846,0.0118365069729
239,42.2146676975,5.69118004943,-10.4875862401,5.07326325018,1.79971532227,-0.242629028053,0.0100577838094,-0.00341713622273,9.74573532372e-05,0.0100655042213,-0.00342485663008,0.00736883006975,0.0120618075883
240,42.4158498409,5.70568670391,-10.4875862401,5.07326325018,1.80829219504,-0.243247494298,0.0102752124913,-0.00347427786774,0.000100479424914,0.0102825874672,-0.00348165284668,0.00742767968657,0.0123075971326
241,42.596823458,5.73414235361,-10.4875862401,5.07326325018,1.8160075498,-0.244460611021,0.0104701687683,-0.00354485566467,0.000115310112275,0.0104791528377,-0.00355383973301,0.00818660040152,0.01254548183
242,42.7685451267,5.72440908516,-10.4875862401,5.07326325018,1.8233284682,-0.244045670203,0.010643665012,-0.00362522152388,0.000112088526105,0.0106515286826,-0.003633085197,0.00797042057481,0.0127643386709
243,42.9561385161,5.75167017487,-10.4875862401,5.07326325018,1.83132604299,-0.245207871937,0.0108528483978,-0.00368630116324,0.000100599086574,0.010860320266,-0.00369377303392,0.00699061845618,0.0130046867928
244,43.1398369453,5.76705973364,-10.4875862401,5.07326325018,1.83915755274,-0.245863966735,0.0110546695944,-0.00379313718708,0.00010327847561,0.0110611833414,-0.00379965093322,0.0069564527828,0.0132695131065
245,43.3033290902,5.7714779877,-10.4875862401,5.07326325018,1.84612763431,-0.246052329483,0.0112555119579,-0.0038550689595,0.000102831783543,0.0112628759216,-0.00386243292805,0.00679615607449,0.0135052299207
246,43.5013729051,5.7829440634,-10.4875862401,5.07326325018,1.8545707297,-0.246541152243,0.0114527222831,-0.00391669006575,8.88779520812e-05,0.0114600913534,-0.0039240591321,0.00586868842153,0.0137356856363
247,43.689037625,5.78359054606,-10.4875862401,5.07326325018,1.86257134035,-0.246568714917,0.0116543764705,-0.00399400008708,0.000107143250005,0.0116612035126,-0.00400082712401,0.00691887792121,0.0139796527759
248,43.8975922175,5.80737814315,-10.4875862401,5.07326325018,1.87146252395,-0.247582849089,0.0118473268833,-0.00405048027551,0.000108013677283,0.0118540163709,-0.00405716975955,0.00680741706157,0.0142025824107
249,44.0668472341,5.82313908986,-10.4875862401,5.07326325018,1.87867829066,-0.248254754563,0.0120452985013,-0.00412027795342,0.000118307127572,0.0120518892942,-0.00412686874561,0.00735981892464,0.0144382029833
250,44.2664015985,5.84736284235,-10.4875862401,5.07326325018,1.88718577796,-0.249287488138,0.0122462732021,-0.00420999587928,0.000130849539159,0.0122540246109,-0.00421774728811,0.00810263710776,0.0146937694985
251,44.4458512586,5.86075803074,-10.4875862401,5.07326325018,1.89483616377,-0.249858555986,0.0124719098462,-0.00428843737567,0.00011119904376,0.0124783690392,-0.00429489656925,0.00668336496309,0.0149598079212
252,44.6047029417,5.89450234532,-10.4875862401,5.07326325018,1.90160840373,-0.251297157689,0.0126789799646,-0.00433376573096,0.000129679219454,0.0126851428853,-0.00433992865401,0.00773201483076,0.0151870536789
253,44.8032588034,5.90526062587,-10.4875862401,5.07326325018,1.91007333183,-0.251755810566,0.0128810785886,-0.00441932993062,0.000102766261554,0.0128873727681,-0.00442562411298,0.00597766431116,0.0154381791436
254,44.9865489335,5.90236178552,-10.4875862401,5.07326325018,1.91788744115,-0.251632236143,0.0130956396839,-0.00448723868357,0.00012137567587,0.0131010006632,-0.00449259966048,0.00694210663391,0.0156867426749
255,45.1574110643,5.90704388635,-10.4875862401,5.07326325018,1.92517171831,-0.251831835484,0.0132884062909,-0.00455845147178,0.000113927570006,0.0132941449113,-0.00456419008478,0.00638510162749,0.0159193307997
256,45.3523926389,5.9255084489,-10.4875862401,5.07326325018,1.93348426801,-0.252619019633,0.0134863752604,-0.00466680458239,0.000127165665725,0.0134925186617,-0.00467294798358,0.00707670870427,0.0161836812189
257,45.5321411525,5.93550308512,-10.4875862401,5.07326325018,1.94114738388,-0.253045124215,0.0137017171097,-0.00475117023882,0.000120626513678,0.0137070116063,-0.00475646473671,0.00658830641825,0.0164449878977
258,45.7052528402,5.94866486076,-10.4875862401,5.07326325018,1.94852756419,-0.253606240431,0.0139049734276,-0.00479751752373,0.00012738158755,0.0139113439006,-0.00480388799433,0.00684440328933,0.0166708413257
259,45.8803985518,5.93490326674,-10.4875862401,5.07326325018,1.95599445427,-0.253019547084,0.0141168536907,-0.00484697305909,0.000115186016718,0.0141228841801,-0.0048530035532,0.00610504438417,0.0169051002687
260,46.0743257255,5.95894322529,-10.4875862401,5.07326325018,1.96426204955,-0.254044440616,0.0143340511464,-0.00490517556653,0.000140741365043,0.0143410432735,-0.00491216769566,0.00733336669145,0.0171521342038
261,46.2513311654,5.97162271108,-10.4875862401,5.07326325018,1.97180822811,-0.254584991616,0.0145782654649,-0.00496979966813,0.000121987714888,0.0145842780499,-0.00497581225333,0.00628774618584,0.0174264386758
262,46.4663822275,6.02457259434,-10.4875862401,5.07326325018,1.98097638321,-0.256842376218,0.0147863484437,-0.00508794047839,0.000139815802994,0.0147928914373,-0.00509448347365,0.00708386827492,0.0177061104731
263,46.6704201153,6.04064312974,-10.4875862401,5.07326325018,1.98967502013,-0.257527499614,0.0149926089226,-0.00517794807629,0.000147785782779,0.0149983214606,-0.00518366061229,0.00732825376765,0.0179625418888
264,46.8394674055,6.04454064919,-10.4875862401,5.07326325018,1.99688192172,-0.257693653483,0.0152136551855,-0.00526357719611,0.000135511257724,0.0152195883762,-0.00526951038641,0.0066888048204,0.0182314509332
265,47.0425195304,6.05892717134,-10.4875862401,5.07326325018,2.00553853421,-0.258306996923,0.0154006576173,-0.00535282252242,0.000141594215021,0.0154067968206,-0.00535896172451,0.00679178320277,0.0184703313532
266,47.2069988344,6.10050377081,-10.4875862401,5.07326325018,2.01255068887,-0.260079507373,0.015634459175,-0.00544037433511,0.000112066640201,0.0156393213421,-0.00544523650229,0.00534348785741,0.0187495633635
267,47.3700235176,6.1149261037,-10.4875862401,5.07326325018,2.01950083932,-0.260694365244,0.0158431988212,-0.00543343144464,0.000145556868716,0.01584904374,-0.00543927637008,0.00683816593743,0.0189426973771
268,47.5679723956,6.15555128722,-10.4875862401,5.07326325018,2.02793989339,-0.262426308535,0.0160590553054,-0.00560630127978,0.000172218613904,0.0160651567965,-0.00561240277448,0.00795809267504,0.0192682408823
269,47.762597988,6.14611243992,-10.4875862401,5.07326325018,2.03623725757,-0.262023915425,0.0162942853946,-0.00564816107548,0.000156819784744,0.0162996814925,-0.0056535571661,0.00720992211981,0.0195169631731
270,47.9352806795,6.1580777755,-10.4875862401,5.07326325018,2.04359915429,-0.262534035496,0.016521067929,-0.00571870490379,0.000171527732818,0.0165261394792,-0.00572377645541,0.00775794911047,0.0197789093217
271,48.1273633423,6.17271270322,-10.4875862401,5.07326325018,2.0517881087,-0.263157956437,0.0167503355786,-0.00579594564981,0.000139946948751,0.0167554804578,-0.00580109052685,0.00623091347587,0.0200485439188
272,48.3260047226,6.18697782602,-10.4875862401,5.07326325018,2.06025666983,-0.263766096037,0.0169879254207,-0.00588124320448,0.000179482350435,0.0169935551283,-0.00588687292222,0.00789575511059,0.0203324185305
273,48.4920539916,6.19521651592,-10.4875862401,5.07326325018,2.06733575965,-0.264117352748,0.0172155846183,-0.005965856708,0.000182252977897,0.0172212658169,-0.00597153791118,0.00786917473628,0.0206055764696
274,48.6897621779,6.22101260789,-10.4875862401,5.07326325018,2.07576454904,-0.265217109634,0.0174525088738,-0.00603439385729,0.000164450514515,0.0174588941757,-0.00604077916315,0.00703784634887,0.0208773241932
275,48.8807463869,6.23136375485,-10.4875862401,5.07326325018,2.08390667788,-0.265658401656,0.0176602414235,-0.00614001941509,0.000170705270088,0.0176657446636,-0.00614552265556,0.00720825953645,0.0211448070533
276,49.0621599373,6.24456494428,-10.4875862401,5.07326325018,2.0916407827,-0.266221192647,0.017910442169,-0.00622277155755,0.000159033814969,0.017915688359,-0.00622801774854,0.00661315195413,0.0214373719848
277,49.2259658828,6.22613469039,-10.4875862401,5.07326325018,2.09862423028,-0.265435461263,0.0181518190778,-0.00629672435037,0.000180958610473,0.0181580109695,-0.00630291624364,0.00745401203818,0.0217170217296
278,49.4112716267,6.27493765413,-10.4875862401,5.07326325018,2.10652427602,-0.26751605839,0.0183853465852,-0.00637558370471,0.000173105343105,0.0183907776161,-0.00638101473159,0.00701329672242,0.0219897691659
279,49.5898491122,6.28350335334,-10.4875862401,5.07326325018,2.1141374655,-0.267881233697,0.018639866678,-0.00646690456507,0.000183841295398,0.0186456221084,-0.00647265999336,0.00735681225385,0.0222925632126
280,49.7833173823,6.2782704874,-10.4875862401,5.07326325018,2.1223855048,-0.26765814307,0.0188565581737,-0.0065535458867,0.000169516566181,0.0188618501074,-0.00655883781787,0.00670400504536,0.0225554645731
281,49.964171457,6.29598425792,-10.4875862401,5.07326325018,2.13009575206,-0.26841332054,0.0190837971748,-0.00664896946299,0.000174993683636,0.0190895081435,-0.00665468043153,0.00682929122087,0.022835852339
282,50.1307997223,6.30693360652,-10.4875862401,5.07326325018,2.13719952366,-0.268880118214,0.019305654384,-0.00672634726228,0.000219072152426,0.0193116522174,-0.00673234511095,0.00845499575851,0.023098007481
283,50.2810288937,6.29012092471,-10.4875862401,5.07326325018,2.14360416398,-0.268163362415,0.0195833919865,-0.00680383980911,0.000198041789699,0.0195892974677,-0.0068097452845,0.00750542986476,0.0234120897796
284,50.4946341884,6.31123131641,-10.4875862401,5.07326325018,2.15271067723,-0.269063340366,0.0198450304191,-0.00687472070523,0.000209609505674,0.0198506533645,-0.00688034365009,0.00786667908889,0.0237058113414
285,50.7079519847,6.34617200935,-10.4875862401,5.07326325018,2.16180495132,-0.27055295913,0.0200770362783,-0.00692100668238,0.000188546687674,0.0200822365921,-0.00692620699306,0.00701732802724,0.0239532972958
286,50.8896309207,6.37266977716,-10.4875862401,5.07326325018,2.16955038386,-0.271682619988,0.0203093843329,-0.00704479672262,0.000208869543292,0.0203151517757,-0.00705056416366,0.00765835021387,0.0242590871065
287,51.0572743494,6.37158474718,-10.4875862401,5.07326325018,2.17669743229,-0.271636354857,0.0205833014937,-0.00712480284519,0.00019299503915,0.0205888575614,-0.00713035891754,0.00701930538892,0.0245695800037
288,51.2586969202,6.39051819963,-10.4875862401,5.07326325018,2.18528457771,-0.272443534849,0.0208112342082,-0.00725469101959,0.000217193240669,0.0208167474643,-0.00726020426968,0.00775625263937,0.0248743197172
289,51.4219196655,6.3915965,-10.4875862401,5.07326325018,2.19224315484,-0.272489510876,0.0210846369414,-0.00735193627577,0.000203521421078,0.0210894686175,-0.00735676795061,0.00717246719511,0.0251961160163
290,51.589140749,6.3909130349,-10.4875862401,5.07326325018,2.19937219357,-0.272460370326,0.0213303843425,-0.00743513001751,0.000216131165056,0.0213358489746,-0.00744059464688,0.0075395843103,0.0254847747242
291,51.778274714,6.39342182376,-10.4875862401,5.07326325018,2.20743545701,-0.272567325354,0.0215893511475,-0.00753059980797,0.000210026753647,0.0215948127662,-0.00753606142718,0.00722388676249,0.0257933914968
292,51.9643983165,6.41096902489,-10.4875862401,5.07326325018,2.21537035411,-0.273315409508,0.0218528988457,-0.00764671404891,0.000206968482081,0.0218580694115,-0.00765188460798,0.00704642219392,0.0261199543192
293,52.1463626799,6.40121198978,-10.4875862401,5.07326325018,2.22312794665,-0.272899437789,0.0221187080345,-0.00771444811684,0.000205792584268,0.0221242571224,-0.00771999720168,0.00692297194342,0.0264150588749
294,52.3053885012,6.38612403311,-10.4875862401,5.07326325018,2.22990760235,-0.272256208604,0.0223752098005,-0.00779812042057,0.00022967498647,0.0223803688872,-0.00780327951375,0.00764177480146,0.0267118228969
295,52.4905006353,6.42687238339,-10.4875862401,5.07326325018,2.23779939015,-0.273993420963,0.0226199081581,-0.00791443213848,0.000241018029739,0.0226251182582,-0.00791964225012,0.00791018581126,0.0270215187776
296,52.6703873877,6.41990205813,-10.4875862401,5.07326325018,2.24546841245,-0.27369625072,0.0229119116732,-0.00802829367811,0.000248078448944,0.0229173249713,-0.00803370698564,0.00804143212423,0.0273732895295
297,52.8677347124,6.43072157134,-10.4875862401,5.07326325018,2.25388182249,-0.274157504937,0.0231429891043,-0.00810840334476,0.000249688292134,0.0231481858977,-0.00811360015045,0.00800428869175,0.0276437984589
298,53.061941079,6.44938607973,-10.4875862401,5.07326325018,2.2621613149,-0.274953218557,0.0234569701449,-0.00817164462124,0.000245715344338,0.0234625849272,-0.00817725941346,0.00777202101639,0.0279798335631
299,53.2519804673,6.46454077441,-10.4875862401,5.07326325018,2.27026315224,-0.275599309826,0.0237026857775,-0.00829901677531,0.000226146027758,0.0237073535166,-0.00830368450803,0.00708446015484,0.0282963540686
300,53.4381737103,6.49606815074,-10.4875862401,5.07326325018,2.27820103396,-0.276943392511,0.0239805226395,-0.00840389290692,0.000219750417019,0.0239849721025,-0.00840834237444,0.00680633405627,0.0286277926507
301,53.6393520503,6.48193165803,-10.4875862401,5.07326325018,2.28677776302,-0.276340711303,0.0242710874833,-0.00848820919536,0.000227560696305,0.0242757258895,-0.00849284760215,0.00694986482899,0.0289562946693
302,53.8411482621,6.5090302604,-10.4875862401,5.07326325018,2.29538082898,-0.277496000277,0.0245355245976,-0.00859097365395,0.000245697427243,0.0245405984637,-0.00859604750856,0.00742959691568,0.029274608408
303,54.0171555455,6.51657482216,-10.4875862401,5.07326325018,2.30288445131,-0.27781764096,0.0247995128614,-0.00867794092807,0.000231028632401,0.0248045143865,-0.00868294243966,0.00690887087294,0.0295799038601
304,54.1894101645,6.53556181514,-10.4875862401,5.07326325018,2.31022809415,-0.278627107916,0.0250868188927,-0.00877640126482,0.000270471122665,0.0250917190522,-0.0087813014115,0.00799809957298,0.0299149840559
305,54.3721863495,6.57623687362,-10.4875862401,5.07326325018,2.31802029967,-0.280361183356,0.0253723195115,-0.00885448478617,0.000258798392435,0.0253776860804,-0.00885985134729,0.00758616897895,0.0302344475527
306,54.5373644693,6.57738685706,-10.4875862401,5.07326325018,2.3250622507,-0.280410214672,0.0256478981246,-0.00899518092776,0.000255669359702,0.02565306899,-0.00900035180368,0.00740865251087,0.0305883424181
307,54.7198899336,6.58421917744,-10.4875862401,5.07326325018,2.33284375986,-0.280701489243,0.0259253014417,-0.00906291639254,0.00025063533555,0.0259299725618,-0.00906758749405,0.0071725576674,0.0308910841853
308,54.8943724131,6.5931452,-10.4875862401,5.07326325018,2.34028236622,-0.281082026428,0.0262125717056,-0.00917068442612,0.000270394045725,0.0262173688505,-0.00917548157156,0.00766119397367,0.0312325947062
309,55.0689376932,6.57994321465,-10.4875862401,5.07326325018,2.34772451552,-0.280519194246,0.0264811683245,-0.00928670612721,0.000276255061378,0.0264861056763,-0.00929164347936,0.0077271565819,0.0315629549886
310,55.2440486323,6.60836416747,-10.4875862401,5.07326325018,2.35518992877,-0.281730848273,0.0267400988309,-0.009381575371,0.000297392060253,0.0267459056423,-0.00938738218906,0.00824979941576,0.0318702332153
311,55.4015675881,6.60359659148,-10.4875862401,5.07326325018,2.36190535349,-0.28152759109,0.0270564189336,-0.00948769854921,0.000295626864226,0.0270619744067,-0.00949325401859,0.00808612697741,0.032236393732
312,55.6010653635,6.6394255515,-10.4875862401,5.07326325018,2.37041044254,-0.283055073429,0.0273672403042,-0.00955568611886,0.000279305516502,0.027372587334,-0.0095610331427,0.00757422933813,0.0325699574548
313,55.8036057464,6.66213955011,-10.4875862401,5.07326325018,2.37904522689,-0.284023423186,0.0276412692882,-0.00966333701337,0.000289424785634,0.0276467469356,-0.00966881465157,0.00776352908716,0.0328987280443
314,55.9903367285,6.67061689486,-10.4875862401,5.07326325018,2.38700603378,-0.284384835828,0.0279361775537,-0.00979623618165,0.000274545491836,0.0279409260233,-0.009800984645,0.00727934991524,0.0332629711163
315,56.179442223,6.66644629,-10.4875862401,5.07326325018,2.39506806958,-0.2842070322,0.0282332026025,-0.00988614741774,0.000291584820873,0.0282383607783,-0.00989130558622,0.00765657805354,0.0336003583182
316,56.3699381255,6.66906586168,-10.4875862401,5.07326325018,2.40318937269,-0.284318717201,0.0285483667222,-0.00999248388531,0.000282258534644,0.028553106261,-0.00999722342061,0.00732736161365,0.0339640613531
317,56.545455279,6.66257319243,-10.4875862401,5.07326325018,2.41067211101,-0.284041913231,0.0288240364494,-0.0100901649346,0.000305343967001,0.0288295470077,-0.0100956754962,0.0078660474717,0.0342877632715
318,56.7224381298,6.66583729033,-10.4875862401,5.07326325018,2.41821732445,-0.284181067392,0.0291150412175,-0.0102009003396,0.000302301362047,0.0291204150351,-0.0102062741597,0.00769930903323,0.0346333528155
319,56.9031731978,6.67122858041,-10.4875862401,5.07326325018,2.42592249268,-0.284410913696,0.0294221425855,-0.0103167160976,0.000309019984022,0.0294271901033,-0.0103217636187,0.00779198080953,0.0349966032369
320,57.0764605675,6.6866241299,-10.4875862401,5.07326325018,2.43331016675,-0.285067263147,0.0297180520612,-0.0104277412597,0.000293624557783,0.0297228979021,-0.0104325871092,0.00732091244428,0.0353460215448
321,57.250779602,6.68857493985,-10.4875862401,5.07326325018,2.44074181927,-0.285150439443,0.0300051283036,-0.0105309608377,0.000320534690777,0.0300107597045,-0.0105365922319,0.00790593353879,0.0356836689872
322,57.4235666662,6.69200460963,-10.4875862401,5.07326325018,2.44810814974,-0.285296644334,0.0303599571599,-0.010637274091,0.000324446212112,0.0303651615785,-0.0106424785057,0.00792196604624,0.0360828037134
323,57.6148561671,6.69182401153,-10.4875862401,5.07326325018,2.45626330822,-0.285288952348,0.0306094543839,-0.0107601655498,0.000310348803819,0.03061463398,-0.0107653451475,0.00751061269708,0.0363987749237
324,57.8028661268,6.68662676964,-10.4875862401,5.07326325018,2.46427863734,-0.285067380569,0.0309612844744,-0.0108501787624,0.000308775289694,0.0309661946989,-0.0108550889827,0.00740132838725,0.0367833812125
325,57.9716897213,6.6830727088,-10.4875862401,5.07326325018,2.4714759915,-0.284915859581,0.0312484757523,-0.0109568981071,0.00032575433905,0.0312538139775,-0.0109622363415,0.00772463763623,0.0371226551352
326,58.1609561014,6.70713022951,-10.4875862401,5.07326325018,2.47954488673,-0.285941504239,0.0315521573657,-0.0110508120903,0.000292792043484,0.0315566711691,-0.0110553258941,0.00688283204967,0.0374650334689
327,58.3594043337,6.69781944225,-10.4875862401,5.07326325018,2.48800521588,-0.285544550383,0.0318570284611,-0.011162706635,0.000311964206979,0.031861842852,-0.0111675210219,0.00724541315145,0.037823525065
328,58.5486239562,6.71770443878,-10.4875862401,5.07326325018,2.49607211294,-0.286392299047,0.032172494706,-0.0112592671671,0.000330146110649,0.0321776893619,-0.0112644618613,0.00759963452388,0.0381803919929
329,58.7257587586,6.73680204033,-10.4875862401,5.07326325018,2.50362381869,-0.287206469953,0.0324734059006,-0.0113687206597,0.000315339791941,0.0324783533636,-0.0113736681291,0.00719013353673,0.0385320349455
330,58.923470059,6.75757338242,-10.4875862401,5.07326325018,2.51205272974,-0.2880920044,0.0327906832545,-0.0114920301341,0.00033062263711,0.0327955327159,-0.0114968795816,0.00746577953868,0.038908612411
331,59.0994935884,6.78439788315,-10.4875862401,5.07326325018,2.5195570508,-0.289235594701,0.0330958025938,-0.0115714815513,0.000335597842125,0.0331008779198,-0.0115765568702,0.00752661313684,0.0392431726405
332,59.2891066244,6.7824196927,-10.4875862401,5.07326325018,2.52764071845,-0.289151270452,0.0334198741724,-0.0117080793148,0.000339828694337,0.0334248215318,-0.0117130266714,0.00753230380098,0.0396351827069
333,59.4660954606,6.79422678886,-10.4875862401,5.07326325018,2.53518619022,-0.289654643089,0.0337320991684,-0.0118141325311,0.000341045722996,0.0337370900948,-0.0118191234457,0.00749930633301,0.0399948090043
334,59.6619642858,6.81074619398,-10.4875862401,5.07326325018,2.54353656127,-0.290358898868,0.0340796327118,-0.0119297886215,0.000352413121623,0.0340845511691,-0.0119347070835,0.00766962076919,0.0403927676541
335,59.8367673156,6.80937100451,-10.4875862401,5.07326325018,2.55098885474,-0.290300268981,0.0343874793978,-0.0120270779662,0.000350515005558,0.0343924627447,-0.0120320613205,0.00757033840734,0.0407415726965
336,60.0149363038,6.81625657846,-10.4875862401,5.07326325018,2.5585846223,-0.290593820298,0.0347088329938,-0.0121585839569,0.000355514826076,0.0347139347729,-0.0121636857215,0.00759080648214,0.0411272250501
337,60.2010264429,6.81223428134,-10.4875862401,5.07326325018,2.56651811897,-0.290422328698,0.0350304345598,-0.0122885852574,0.000353807616618,0.0350356175194,-0.0122937682251,0.00747452493966,0.041512417404
338,60.3885333432,6.84975110892,-10.4875862401,5.07326325018,2.57451199578,-0.292021774768,0.0353704100821,-0.0123687407744,0.000350484208469,0.0353752689563,-0.0123735996355,0.00734266850774,0.0418768061413
339,60.556631102,6.83838417343,-10.4875862401,5.07326325018,2.5816784112,-0.291537167585,0.0356891007161,-0.0125028244438,0.000394971839745,0.0356945308767,-0.0125082545911,0.00819851085992,0.0422621120022
340,60.7597067893,6.84736676793,-10.4875862401,5.07326325018,2.59033602294,-0.291920120594,0.0359830720869,-0.0126405947157,0.000384022959127,0.0359879379025,-0.0126454605388,0.00789999254077,0.0426259493453
341,60.9315023613,6.85791939572,-10.4875862401,5.07326325018,2.59766010064,-0.292370001089,0.0363589024349,-0.0127485686976,0.000375860316454,0.036363650604,-0.012753316857,0.00765959695523,0.0430427137315
342,61.11979421,6.85842460267,-10.4875862401,5.07326325018,2.60568744651,-0.292391537733,0.0366774961997,-0.0128531257431,0.000376569766817,0.0366828127319,-0.0128584422524,0.00760966210051,0.0434064233027
343,61.2927279778,6.87293465946,-10.4875862401,5.07326325018,2.61306003546,-0.293010145073,0.037000815681,-0.0129480147388,0.000381418562843,0.0370058770407,-0.0129530760892,0.00764104536827,0.0437658689322
344,61.4838058479,6.86298635168,-10.4875862401,5.07326325018,2.62120616061,-0.292586018313,0.0373222648193,-0.0130482145979,0.000402473155377,0.0373278467276,-0.0130537964935,0.0079955265871,0.0441283357705
345,61.6670972285,6.86146260344,-10.4875862401,5.07326325018,2.62902031693,-0.29252104761,0.0376526154601,-0.0131983226891,0.000380450738785,0.0376573259773,-0.0132030331909,0.00749172190593,0.044532684746
346,61.8443338087,6.88043124578,-10.4875862401,5.07326325018,2.63657634615,-0.293329741443,0.0379798447777,-0.0132749896041,0.000395789376765,0.0379849012163,-0.0132800460293,0.00773127175625,0.0448830337564
347,62.028410238,6.88217050903,-10.4875862401,5.07326325018,2.64442397748,-0.293403894252,0.0383107642968,-0.013401780017,0.000387507105245,0.0383155383943,-0.0134065541011,0.00750265788361,0.0452714318918
348,62.211297406,6.88304616851,-10.4875862401,5.07326325018,2.65222091922,-0.293441214572,0.0386724649535,-0.0135249969011,0.000390352254274,0.0386772890696,-0.0135298210392,0.00749128986875,0.0456851918541
349,62.3960457016,6.87849578153,-10.4875862401,5.07326325018,2.66009720004,-0.293247230785,0.0389840315275,-0.0136389006259,0.000401035358559,0.0389890911215,-0.0136439602163,0.00763656392659,0.0460479657394
350,62.5771426983,6.90812260023,-10.4875862401,5.07326325018,2.66781781154,-0.294510282816,0.0393204449899,-0.0137558713743,0.000415798294543,0.0393252072525,-0.0137606336123,0.00783795500729,0.0464334273401
351,62.7615328828,6.9064722457,-10.4875862401,5.07326325018,2.67567880846,-0.294439936327,0.0396659991261,-0.0138462829598,0.000407940073208,0.0396711377096,-0.0138514215508,0.00763676366535,0.0468093005364
352,62.955971805,6.93741068429,-10.4875862401,5.07326325018,2.68396822569,-0.295758917144,0.0400118796586,-0.0139676832207,0.000425140833356,0.0400173148133,-0.013973118385,0.00787220386343,0.0472076584098
353,63.1321374607,6.94337442271,-10.4875862401,5.07326325018,2.69147859412,-0.296013172099,0.040356889549,-0.0141051837777,0.000427800675783,0.0403622890082,-0.014110583222,0.00786183683318,0.0476159117521
354,63.3030614865,6.95428110742,-10.4875862401,5.07326325018,2.69876551151,-0.296478137828,0.0406969078152,-0.0142126062662,0.000431829729714,0.0407024185339,-0.0142181169854,0.00787358548815,0.0479983025542
355,63.4777403163,6.9783718678,-10.4875862401,5.07326325018,2.70621249344,-0.297505183955,0.0410361210809,-0.0143256540915,0.000438302477386,0.0410416096542,-0.0143311426548,0.0079339173224,0.0483833805336
356,63.6687995997,6.97592753503,-10.4875862401,5.07326325018,2.71435782819,-0.297400982218,0.0414205188695,-0.0144408384024,0.000450366010321,0.0414260836727,-0.0144464032228,0.00806970999778,0.0488106604973
357,63.8277173047,6.9666307034,-10.4875862401,5.07326325018,2.72113289052,-0.297004631007,0.0417377686095,-0.0145911573904,0.000464635459333,0.0417434596393,-0.0145968484208,0.00825348433474,0.0492029271987
358,64.0140207014,7.00646580321,-10.4875862401,5.07326325018,2.72907544675,-0.298702910956,0.0420769610708,-0.0146778638496,0.000433988896027,0.042082384952,-0.0146832877149,0.00765726210388,0.0495678486636
359,64.1750057188,6.95604258911,-10.4875862401,5.07326325018,2.73593864489,-0.296553231942,0.0424377263047,-0.0148407969406,0.000449526533654,0.0424433498575,-0.0148464204818,0.00785749782113,0.0500083711885
360,64.3734959863,6.95972210646,-10.4875862401,5.07326325018,2.74440076066,-0.296710107297,0.0428396236538,-0.0149576626066,0.00044752682142,0.0428449713955,-0.0149630103504,0.00774884416356,0.0504508411088
361,64.5625466296,7.01169855364,-10.4875862401,5.07326325018,2.75246046268,-0.298925993237,0.0431760387802,-0.0150781039138,0.00044924471914,0.043181357899,-0.0150834230179,0.00772542768656,0.0508379370358
362,64.771460081,6.99561617189,-10.4875862401,5.07326325018,2.76136695954,-0.298240359791,0.0435219098158,-0.0151836100346,0.000444739116045,0.0435272278283,-0.0151889280214,0.00757798836846,0.0512222922988
363,64.962052947,6.99818426937,-10.4875862401,5.07326325018,2.76949240607,-0.298349837529,0.0438682072867,-0.0153117480557,0.000461286706666,0.0438741181612,-0.0153176589301,0.0078052244229,0.0516244161753
364,65.1422802005,7.00136886721,-10.4875862401,5.07326325018,2.77717594217,-0.298485607622,0.0442160991754,-0.0154314430768,0.000472483598835,0.044221495013,-0.0154368388963,0.0079222931692,0.0520194290311
365,65.3300144296,7.00329981792,-10.4875862401,5.07326325018,2.78517949748,-0.298567931856,0.0445658757566,-0.0155635786418,0.00047440632063,0.0445713270554,-0.0155690299543,0.00789134826328,0.0524261277626
366,65.5143308702,6.96185189968,-10.4875862401,5.07326325018,2.79303738061,-0.29680090729,0.0449402497675,-0.0156972499918,0.000501659807461,0.0449463080645,-0.0157033082994,0.008277964731,0.052857124001
367,65.690856222,7.01068993351,-10.4875862401,5.07326325018,2.80056308406,-0.298882984562,0.0452849628662,-0.0157980497538,0.000492021270181,0.0452911332145,-0.0158042201091,0.00806174135731,0.0532361540165
368,65.866898373,6.99687359908,-10.4875862401,5.07326325018,2.80806819287,-0.298293957231,0.0456371753047,-0.0159394280439,0.000496795006131,0.045643078517,-0.0159453312326,0.00808230860727,0.0536508558623
369,66.033224451,7.00511913833,-10.4875862401,5.07326325018,2.81515908413,-0.298645492056,0.045987953092,-0.0160279433897,0.00049382603183,0.0459939734629,-0.0160339637309,0.00797286701923,0.0540258081905
370,66.2227938265,7.00903831193,-10.4875862401,5.07326325018,2.82324089674,-0.298812573438,0.0463768994677,-0.0161292571056,0.00048843505448,0.046382820394,-0.0161351780212,0.00782643178364,0.0544436653277
371,66.4062606352,7.01825075916,-10.4875862401,5.07326325018,2.83106253929,-0.299205320557,0.0467298522228,-0.0162726178837,0.000506839357293,0.0467357984616,-0.016278564123,0.0080579332148,0.0548602837189
372,66.5971998869,7.02927562103,-10.4875862401,5.07326325018,2.83920274175,-0.299675348831,0.0471025130317,-0.0164114070972,0.000494745647557,0.0471083735972,-0.0164172676631,0.00779560490448,0.0552907272724
373,66.7862755529,7.03387500128,-10.4875862401,5.07326325018,2.84726350072,-0.299871418227,0.0474528287856,-0.0165292226365,0.000503965147962,0.0474587733178,-0.0165351671904,0.00788258133394,0.0556863532469
374,66.9786096013,7.04078826898,-10.4875862401,5.07326325018,2.85546317958,-0.300166157114,0.0478282257683,-0.0166589360971,0.000511786209828,0.0478342519108,-0.0166649622253,0.00793904163848,0.056112364849
375,67.1655899739,7.04889342414,-10.4875862401,5.07326325018,2.8634346184,-0.300511694247,0.0481954740688,-0.016784257296,0.000508847573455,0.0482011585185,-0.0167899417628,0.00784132542824,0.0565270105274
376,67.33286765,7.03457732964,-10.4875862401,5.07326325018,2.87056608046,-0.299901369822,0.0485536493243,-0.0169059556141,0.000521047749235,0.0485596037526,-0.0169119100463,0.00796320026122,0.0569320138239
377,67.5120817484,7.01415095538,-10.4875862401,5.07326325018,2.87820641942,-0.299030539746,0.0489275813845,-0.0170063296121,0.000515758212874,0.0489334497829,-0.0170121980211,0.00782913039941,0.0573344643283
378,67.6848344268,7.02293216524,-10.4875862401,5.07326325018,2.88557129007,-0.299404904299,0.0493168561279,-0.0171524599485,0.000522623403526,0.0493224043943,-0.0171580081998,0.00786708227821,0.0577832346984
379,67.8667852065,7.01645083637,-10.4875862401,5.07326325018,2.89332829742,-0.299128584851,0.0496733162192,-0.0172642377837,0.000534203420934,0.0496792792395,-0.0172702008224,0.00798248940368,0.0581791649683
380,68.0592248285,7.03188041247,-10.4875862401,5.07326325018,2.90153247133,-0.299786386312,0.0500736796416,-0.0173583922561,0.000539857026815,0.050079752768,-0.0173644653832,0.00801136772891,0.0585998112618
381,68.2357548279,7.04385206796,-10.4875862401,5.07326325018,2.90905838093,-0.300296771768,0.0504396592368,-0.0174921654694,0.000551615235289,0.0504457475544,-0.0174982537952,0.00812556365313,0.059019183539
382,68.4309179129,7.03242846629,-10.4875862401,5.07326325018,2.91737866098,-0.299809759473,0.0508155194702,-0.0176122104761,0.000561053426297,0.0508220386936,-0.0176187297049,0.00820166958392,0.0594376644113
383,68.6163359871,7.05255764732,-10.4875862401,5.07326325018,2.92528350585,-0.300667912066,0.0512057756646,-0.0177318785606,0.000580483789169,0.05121233845,-0.0177384413538,0.00843045559909,0.0598671934398
384,68.8117299171,7.06716706446,-10.4875862401,5.07326325018,2.93361362011,-0.301290754118,0.0515993835922,-0.0178921528647,0.000562851360553,0.0516055763971,-0.0178983456582,0.00810641714184,0.0603290030644
385,68.9868522543,7.08783733941,-10.4875862401,5.07326325018,2.94107951596,-0.302171970178,0.0519456077018,-0.0180194103951,0.000571136579957,0.0519519373903,-0.0180257400728,0.00817112536718,0.0607256069303
386,69.1714074848,7.07536420672,-10.4875862401,5.07326325018,2.94894755947,-0.301640215559,0.0523316349305,-0.0181389431651,0.00057795060517,0.0523380018623,-0.0181453100991,0.00820292372184,0.0611508789018
387,69.3537025415,7.08043308374,-10.4875862401,5.07326325018,2.95671924252,-0.301856316497,0.0527171879951,-0.0182425032051,0.000570680670508,0.0527236207188,-0.0182489359386,0.00804700203368,0.0615641479805
388,69.5282910486,7.10923890781,-10.4875862401,5.07326325018,2.96416240082,-0.303084369461,0.0531268306041,-0.0183897995461,0.000589433125128,0.05313371709,-0.0183966860448,0.00824996942307,0.0620308885514
389,69.7096696614,7.0952871822,-10.4875862401,5.07326325018,2.97189501669,-0.302489578905,0.0534804042666,-0.0185012146601,0.000578781585173,0.053486970722,-0.0185077811347,0.0080454704974,0.0624207015582
390,69.9004604109,7.09055208197,-10.4875862401,5.07326325018,2.98002888058,-0.302287706515,0.05389259681,-0.0186162830654,0.00057905475716,0.0538989623915,-0.0186226486429,0.00799512421257,0.0628642598091
391,70.0695070862,7.08275941812,-10.4875862401,5.07326325018,2.987235758,-0.301955492263,0.0542588058934,-0.0187799997851,0.000574636377124,0.0542650514191,-0.0187862453107,0.00787749830713,0.0633035298488
392,70.2464018888,7.09951949308,-10.4875862401,5.07326325018,2.99477721597,-0.302670009521,0.0546467037738,-0.0189018587545,0.000588780483585,0.0546532114342,-0.018908366434,0.00801523497331,0.063731717186
393,70.4338989486,7.10886823722,-10.4875862401,5.07326325018,3.00277069153,-0.30306857485,0.0550313690041,-0.0190277198677,0.000584536778433,0.0550374631506,-0.0190338140276,0.00789473285555,0.0641583256291
394,70.6311948965,7.10926973194,-10.4875862401,5.07326325018,3.01118190301,-0.303085689441,0.0554316397655,-0.0191944840471,0.000589866834567,0.0554379131774,-0.0192007574706,0.00791555910479,0.0646291168359
395,70.8166611305,7.10379334265,-10.4875862401,5.07326325018,3.01908877982,-0.302852222744,0.0558198797092,-0.0192987449577,0.000601764426103,0.0558261859815,-0.0193050512205,0.00802014798286,0.0650435388708
396,70.9891547509,7.1194168327,-10.4875862401,5.07326325018,3.0264426073,-0.303518287501,0.0561996546183,-0.0194092138609,0.00060508759599,0.0562060651683,-0.0194156243874,0.00801288191035,0.0654547285147
397,71.1669339251,7.13279538211,-10.4875862401,5.07326325018,3.03402176442,-0.304088645081,0.056592546913,-0.0195380739774,0.000609652227266,0.0565990618839,-0.0195445889283,0.00801170438705,0.0658906198886
398,71.3352221274,7.12402224309,-10.4875862401,5.07326325018,3.04119631098,-0.303714623996,0.0569839312916,-0.0196683769422,0.000598802018919,0.0569900767289,-0.0196745223987,0.00782110599239,0.0663255380508
399,71.5151406004,7.13093266886,-10.4875862401,5.07326325018,3.0488666842,-0.304009232277,0.0573827612647,-0.0197920425104,0.000617042653089,0.0573890803853,-0.0197983616511,0.00800123397407,0.0667625061352
400,71.6979117055,7.13884587347,-10.4875862401,5.07326325018,3.05665866592,-0.304346587179,0.0577970283177,-0.0199416006025,0.000611076375435,0.057803368844,-0.0199479411337,0.00786619552405,0.067231387046
401,71.8749532625,7.11916235069,-10.4875862401,5.07326325018,3.06420637764,-0.303507429865,0.0581730868893,-0.0200544450216,0.000624274161631,0.0581797122875,-0.0200610704163,0.00799277086359,0.0676408031763
402,72.0730030863,7.14115502479,-10.4875862401,5.07326325018,3.07264974129,-0.304445037886,0.0585968056815,-0.0202154226467,0.000622653332353,0.0586032636166,-0.0202218805935,0.00790853209056,0.0681257088182
403,72.2508488398,7.13128040129,-10.4875862401,5.07326325018,3.08023172944,-0.304024063393,0.0589719585533,-0.0203226976748,0.000642240970956,0.0589785584658,-0.0203292975759,0.00810469658348,0.068529105748
404,72.4366344615,7.14991656743,-10.4875862401,5.07326325018,3.08815223525,-0.304818561367,0.0593775087982,-0.0204605909969,0.000642667609672,0.0593841806243,-0.0204672627985,0.00805767496025,0.0689809286988
405,72.6241709098,7.1636245304,-10.4875862401,5.07326325018,3.09614737349,-0.305402964618,0.0597932386401,-0.0205963918253,0.0006610352753,0.0598002820474,-0.0206034352257,0.00823380416373,0.0694405055219
406,72.8145523607,7.15931770173,-10.4875862401,5.07326325018,3.10426381494,-0.305219352727,0.060195061301,-0.0206878281862,0.000654288858806,0.0602018872379,-0.0206946541477,0.00809655467669,0.0698542037866
407,72.9907858993,7.18031892495,-10.4875862401,5.07326325018,3.1117770802,-0.306114689529,0.0605907048265,-0.02082240747,0.000669419874199,0.0605978389642,-0.0208295416242,0.00823173623371,0.0702947401091
408,73.1695637332,7.15783672997,-10.4875862401,5.07326325018,3.1193988336,-0.305156228834,0.0609869601877,-0.0209528571631,0.00064791005649,0.0609935112492,-0.0209594082312,0.00790836727475,0.0707313716945
409,73.35321132,7.16607443363,-10.4875862401,5.07326325018,3.12722816112,-0.305507402169,0.0614045108029,-0.0211239953723,0.00065421348633,0.0614112099456,-0.0211306945219,0.00793716668626,0.0712171698585
410,73.5341881956,7.15890164736,-10.4875862401,5.07326325018,3.13494365133,-0.305201612937,0.061811542968,-0.0212552752302,0.000674838252658,0.0618183682461,-0.0212621005266,0.00812929366635,0.0716647575818
411,73.7183540859,7.17170799985,-10.4875862401,5.07326325018,3.14279510024,-0.30574758585,0.0622126621655,-0.0213738137573,0.000687188603628,0.0622196422795,-0.0213807938978,0.00822306002036,0.0720970817594
412,73.8964209564,7.1674529851,-10.4875862401,5.07326325018,3.15038653625,-0.305566180639,0.0626125748322,-0.021501215816,0.000705118479024,0.0626201883557,-0.0215088293287,0.00839089638344,0.0725355789314
413,74.0787934468,7.16741837218,-10.4875862401,5.07326325018,3.15816151888,-0.305564713183,0.0630402370785,-0.0216292923921,0.000696941456071,0.0630474992986,-0.0216365546151,0.00823678997456,0.0729964759171
414,74.2641639337,7.17406182667,-10.4875862401,5.07326325018,3.1660643229,-0.305847936175,0.0634428746463,-0.0217732915327,0.000688250128224,0.0634500211244,-0.0217804379966,0.0080858485049,0.0734482082033
415,74.4448772134,7.18465070838,-10.4875862401,5.07326325018,3.17376856447,-0.306299370625,0.0638664634881,-0.0218947281784,0.000704538615806,0.0638737167833,-0.0219019814602,0.00822638305298,0.0739009268461
416,74.6278020157,7.19042696928,-10.4875862401,5.07326325018,3.18156711263,-0.306545623057,0.0642720732549,-0.0220183727274,0.000698652683404,0.0642791177335,-0.0220254172126,0.00810549235966,0.0743395003129
417,74.8103006684,7.18706686476,-10.4875862401,5.07326325018,3.18934747507,-0.306402374698,0.0646944072145,-0.0221671496711,0.000696242903121,0.0647014421712,-0.0221741846391,0.00802060287122,0.0748111552836
418,75.0008230261,7.1871991537,-10.4875862401,5.07326325018,3.1974699101,-0.306408009315,0.0651141474318,-0.0223069506665,0.000705134537343,0.0651214783206,-0.0223142815715,0.00806698438709,0.0752738197894
419,75.1760931815,7.19387947968,-10.4875862401,5.07326325018,3.20494210939,-0.306692803293,0.0655132695862,-0.0224340726477,0.000725830900124,0.0655210595369,-0.0224418625773,0.00826323864421,0.0757096721355
420,75.3591216901,7.20001069925,-10.4875862401,5.07326325018,3.21274506241,-0.306954197358,0.0659343179725,-0.0225814761838,0.00073237439185,0.0659418748387,-0.0225890329954,0.00827780101023,0.0761777799282
421,75.5392612526,7.18058601286,-10.4875862401,5.07326325018,3.2204248631,-0.306126080236,0.0663482300259,-0.022702131727,0.000714226623682,0.0663554443259,-0.0227093460473,0.00802853419962,0.076619598817
422,75.7290162325,7.19069047961,-10.4875862401,5.07326325018,3.22851457784,-0.306556858499,0.0667883800087,-0.0228551229996,0.000729911684333,0.0667955185428,-0.0228622615511,0.00814962616962,0.0771080757345
423,75.9022977225,7.19220860938,-10.4875862401,5.07326325018,3.23590199791,-0.306621575294,0.0671895611325,-0.022977100178,0.000751488357934,0.0671972330547,-0.022984772079,0.00833976059474,0.0775410129644
424,76.0819958666,7.19421811979,-10.4875862401,5.07326325018,3.24356297312,-0.306707252326,0.0676138473231,-0.023091702626,0.000748947028405,0.0676214741182,-0.0230993294543,0.00826001724908,0.0779869324382
425,76.2565244167,7.18617275153,-10.4875862401,5.07326325018,3.25100355918,-0.306364249779,0.0680132943198,-0.0232592042491,0.000741058858524,0.0680208076669,-0.023266717579,0.00813043492108,0.0784511071028
426,76.4438852221,7.18654335269,-10.4875862401,5.07326325018,3.25899121168,-0.306380050232,0.0684515821059,-0.0233917434466,0.000747384802822,0.0684590119361,-0.0233991732494,0.00813721641124,0.0789216142106
427,76.6147054421,7.18747127744,-10.4875862401,5.07326325018,3.26627369286,-0.306419624252,0.0688631498687,-0.0235069040937,0.000763044528419,0.0688709258389,-0.0235146800704,0.0082627042205,0.0793571886139
428,76.7871346826,7.1794937886,-10.4875862401,5.07326325018,3.27362477442,-0.306079514333,0.0692903453608,-0.023637525967,0.000774436377069,0.0692982217637,-0.0236454023799,0.00834131653919,0.0798167521875
429,76.982042403,7.17923966382,-10.4875862401,5.07326325018,3.28193418205,-0.306068681872,0.0697221965627,-0.0237656737448,0.000776944015533,0.0697299970546,-0.0237734742318,0.00831443056206,0.0802778368474
430,77.1714202321,7.1935061029,-10.4875862401,5.07326325018,3.29000782263,-0.306676899964,0.0701572529706,-0.0238877968372,0.000769661335376,0.0701648623829,-0.0238954062485,0.00819277027886,0.0807368505124
431,77.3549024056,7.19433223084,-10.4875862401,5.07326325018,3.29783012059,-0.306712115089,0.0705782156913,-0.0240384038684,0.000769260587522,0.0705858309334,-0.0240460191463,0.00813835349086,0.0812051724016
432,77.5471831706,7.19770817865,-10.4875862401,5.07326325018,3.30602751828,-0.306856037742,0.0710336463101,-0.0241990891069,0.000785957473433,0.0710415141986,-0.0242069569752,0.00825745048501,0.0817104063954
433,77.7153215021,7.19685284656,-10.4875862401,5.07326325018,3.31319567531,-0.306819573145,0.0714174758301,-0.0243052244879,0.000816504469238,0.0714258954095,-0.0243136440841,0.00853816675435,0.0821145137649
434,77.8968181139,7.20282485979,-10.4875862401,5.07326325018,3.32093331445,-0.307074179991,0.071874922025,-0.0244431428218,0.000795078410508,0.0718829872516,-0.0244512080516,0.00826466155461,0.0826031286624
435,78.0848574233,7.19534952495,-10.4875862401,5.07326325018,3.3289499046,-0.306755479465,0.0722950757517,-0.0245632810417,0.000791665075808,0.0723029141458,-0.0245711194339,0.00818090066388,0.0830465267299
436,78.2706408205,7.21760662052,-10.4875862401,5.07326325018,3.33687029653,-0.307704364782,0.0727164505743,-0.0247358526064,0.000807196401749,0.072724494,-0.0247438959839,0.00829185987429,0.0835310622478
437,78.4595929765,7.23692032638,-10.4875862401,5.07326325018,3.34492578488,-0.308527748507,0.0731547828614,-0.0248919796312,0.000803877037694,0.0731626888232,-0.024899885587,0.00820285783958,0.0840163998487
438,78.6485491285,7.24331349439,-10.4875862401,5.07326325018,3.35298146824,-0.308800298851,0.0735922102665,-0.0250243044813,0.000815598053512,0.0736003756924,-0.0250324699136,0.00827814075508,0.0844837325104
439,78.8423497849,7.2468447172,-10.4875862401,5.07326325018,3.36124366812,-0.30895083984,0.0740397980683,-0.0251576180639,0.000805318164273,0.0740478477213,-0.0251656677281,0.00812586964361,0.084959496167
440,79.0176527345,7.26360012654,-10.4875862401,5.07326325018,3.36871726418,-0.309665172642,0.0745015098653,-0.0253098821307,0.000817409103954,0.0745095687374,-0.0253179409965,0.00819669791839,0.0854612961786
441,79.1748817869,7.25499914247,-10.4875862401,5.07326325018,3.37542032909,-0.309298493258,0.0748872874085,-0.0254430176319,0.00083367916268,0.0748956502878,-0.0254513805403,0.0083158686656,0.085885018468
442,79.3518318243,7.21408229032,-10.4875862401,5.07326325018,3.38296414934,-0.307554104631,0.0753989760854,-0.0255031635791,0.000824566531161,0.0754070909688,-0.0255112784259,0.0081813446123,0.0863590235902
443,79.5477072536,7.25281814237,-10.4875862401,5.07326325018,3.39131478652,-0.309205511631,0.0758283558437,-0.0256316152679,0.000809516434226,0.0758360701422,-0.0256393295562,0.00798305364002,0.0868143745849
444,79.7254075147,7.25783573183,-10.4875862401,5.07326325018,3.3988905972,-0.309419421674,0.0762763023699,-0.025858422615,0.00082071561289,0.0762844497758,-0.0258665700013,0.00804320804421,0.0873597163992
445,79.8976803076,7.26434971061,-10.4875862401,5.07326325018,3.40623500347,-0.309697133149,0.0766928346482,-0.0259817861941,0.00085304297905,0.0767013165349,-0.0259902680633,0.00831543180884,0.0878010098429
446,80.0678867668,7.26741162054,-10.4875862401,5.07326325018,3.41349132309,-0.309827662069,0.0771162805999,-0.0261402531743,0.000850194370808,0.0771245016415,-0.0261484742216,0.00824232668605,0.0882738215907
447,80.2278877721,7.25676330527,-10.4875862401,5.07326325018,3.42031256535,-0.309373701149,0.0775667777634,-0.0262314268544,0.000860849539374,0.0775752958371,-0.026239944935,0.00830252678753,0.0887187504375
448,80.4030934746,7.2633563835,-10.4875862401,5.07326325018,3.42778202108,-0.309654789997,0.0780113092011,-0.0263779006063,0.000866674633926,0.0780198311377,-0.0263864225859,0.00831229432716,0.0891994308357
449,80.604885736,7.26970690784,-10.4875862401,5.07326325018,3.43638492521,-0.309925521766,0.0785035606307,-0.026525563608,0.000860028068655,0.078512012999,-0.0265340159927,0.00819605647391,0.089720977505
450,80.8015076842,7.28095823546,-10.4875862401,5.07326325018,3.44476740017,-0.310405195894,0.078966910713,-0.0266730162882,0.000865560908996,0.0789756021261,-0.0266817077287,0.00820548846669,0.0902181744542
451,80.9601313647,7.29049461117,-10.4875862401,5.07326325018,3.45152991232,-0.310811758247,0.0793733962792,-0.0268270116639,0.000875497880185,0.0793818790601,-0.0268354944555,0.00825245381386,0.0906716983752
452,81.1456273761,7.28779408435,-10.4875862401,5.07326325018,3.45943806981,-0.310696623826,0.0798509080344,-0.0269400884546,0.000859264553753,0.0798591135927,-0.0269482939711,0.00805567811032,0.0911534762486
453,81.3436910807,7.2932978667,-10.4875862401,5.07326325018,3.46788199737,-0.310931253939,0.0802775975413,-0.0271126335301,0.000895880711971,0.0802864266105,-0.0271214625752,0.00834803769551,0.0916390381818
454,81.5292308227,7.30617627121,-10.4875862401,5.07326325018,3.47579201846,-0.311480295244,0.0807636348567,-0.0272225090061,0.000893060707565,0.0807723196227,-0.027231193752,0.00827774278726,0.0921253820681
455,81.697312067,7.28097076394,-10.4875862401,5.07326325018,3.48295773718,-0.310405722134,0.0812052541525,-0.0273891541362,0.000865079446238,0.0812134136641,-0.0273973136414,0.00797428051988,0.0926161893432
456,81.882150356,7.29292327399,-10.4875862401,5.07326325018,3.49083784424,-0.310915295313,0.0816616204682,-0.0275198639244,0.000874724753789,0.0816698981827,-0.0275281416221,0.00801662279985,0.0930931678641
457,82.0586553564,7.2920255838,-10.4875862401,5.07326325018,3.49836268418,-0.31087702015,0.0821051113438,-0.0276796920268,0.000888136776129,0.0821137830945,-0.0276883637566,0.00810071786911,0.0935814540819
458,82.2435250293,7.28364193737,-10.4875862401,5.07326325018,3.50624414225,-0.310519598811,0.0825802913056,-0.0278004718098,0.000904816833361,0.0825891827247,-0.0278093632379,0.00820305875551,0.0940662417357
459,82.4220821615,7.28419926442,-10.4875862401,5.07326325018,3.51385647198,-0.310543365779,0.0830192548223,-0.0279410703702,0.000902560051414,0.0830280059917,-0.0279498215241,0.00814467615882,0.0945351111608
460,82.6112500275,7.27861247301,-10.4875862401,5.07326325018,3.52192115541,-0.310305181943,0.0835065214784,-0.0280832604811,0.000919419483664,0.0835152288647,-0.0280919678611,0.00824620235782,0.0950449399065
461,82.7983297,7.291583371,-10.4875862401,5.07326325018,3.52989683462,-0.310858168574,0.0839392662477,-0.0282526519748,0.000920619813916,0.0839483725339,-0.0282617582359,0.00821462708088,0.0955306595568
462,82.9858886742,7.29548391254,-10.4875862401,5.07326325018,3.53789293755,-0.311024453178,0.0844180322007,-0.028346972489,0.000911295265062,0.084426749585,-0.0283556898623,0.00808869417445,0.0959962312517
463,83.1606750703,7.29586544868,-10.4875862401,5.07326325018,3.54534452512,-0.311040726998,0.0848942621287,-0.0284931612872,0.000935276258342,0.0849033213936,-0.0285022205694,0.00825479103652,0.0964998762733
464,83.3386083984,7.28027969781,-10.4875862401,5.07326325018,3.55293024802,-0.310376259942,0.085360380722,-0.02866344108,0.000942455268605,0.0853695651227,-0.0286726254586,0.00827463478168,0.0970128126757
465,83.5182001473,7.27515013117,-10.4875862401,5.07326325018,3.56058668595,-0.310157585146,0.0857800813234,-0.028825000702,0.000961059214034,0.0857893244842,-0.0288342438935,0.00839512286888,0.0974798330162
466,83.6977075351,7.27320107957,-10.4875862401,5.07326325018,3.56823953077,-0.310074489474,0.0862407494175,-0.0289460739697,0.000947422388019,0.0862496760724,-0.0289550006275,0.00822750227363,0.0979499200555
467,83.8721368578,7.26263558851,-10.4875862401,5.07326325018,3.57567588482,-0.309624052659,0.0867119194449,-0.0290920314808,0.0009540519419,0.0867211396842,-0.0291012517221,0.00824238627594,0.0984479518171
468,84.0705543926,7.2805828884,-10.4875862401,5.07326325018,3.58413491245,-0.31038919143,0.087203933136,-0.0292378925376,0.000960476383309,0.0872132635705,-0.0292472229792,0.00825950295173,0.098962623883
469,84.2427681083,7.28857478012,-10.4875862401,5.07326325018,3.59147680779,-0.310729909865,0.0876670958694,-0.0293579456425,0.000967154900978,0.087676332724,-0.0293671825104,0.00827122694663,0.0994332709795
470,84.437303984,7.29266256313,-10.4875862401,5.07326325018,3.59977035116,-0.310904172554,0.0881548534244,-0.0294927758878,0.000966176696858,0.0881640551318,-0.0295019775695,0.00821676139544,0.0999348363083
471,84.5880024306,7.29080883051,-10.4875862401,5.07326325018,3.60619499697,-0.310825144888,0.0886117889442,-0.0296332388597,0.00099003695538,0.0886215015762,-0.0296429514843,0.00838121690366,0.100416564745
472,84.7881790157,7.3209337299,-10.4875862401,5.07326325018,3.61472902597,-0.312109444186,0.089093629023,-0.0297875909866,0.000993727878549,0.0891031732321,-0.0297971351668,0.00836507710337,0.100927176085
473,84.9632174818,7.27475278387,-10.4875862401,5.07326325018,3.62219132978,-0.31014063651,0.0895434083311,-0.0299046088495,0.00102386199364,0.0895535835756,-0.0299147840843,0.00857866425232,0.101384728668
474,85.1680695287,7.2966602127,-10.4875862401,5.07326325018,3.63092468203,-0.311074603564,0.0900731582449,-0.0300476063971,0.000985926036121,0.0900824675294,-0.030056915646,0.0082139625148,0.101924789621
475,85.3616832266,7.33124613224,-10.4875862401,5.07326325018,3.63917892044,-0.312549089893,0.0904720421286,-0.0301969582824,0.000990437153199,0.0904813823079,-0.0302062984899,0.00821716809503,0.10236366234
476,85.5096442678,7.33417020053,-10.4875862401,5.07326325018,3.64548686753,-0.312673756966,0.0909888314743,-0.0303267204401,0.00101055908958,0.0909985032252,-0.0303363921899,0.00834080049962,0.102883943045
477,85.6628427496,7.29732360967,-10.4875862401,5.07326325018,3.65201808672,-0.31110288523,0.0914187637245,-0.0305043144704,0.00103224098249,0.09142883442,-0.0305143851954,0.00847935977125,0.103369965136
478,85.854918695,7.34120299472,-10.4875862401,5.07326325018,3.66020675937,-0.312973572269,0.0919150947424,-0.0306422537364,0.00101534293694,0.091924678614,-0.0306518376081,0.00828934230029,0.103877930411
479,86.0132903927,7.31403359003,-10.4875862401,5.07326325018,3.66695852133,-0.311815271748,0.0923866499883,-0.0307495295734,0.00101123920312,0.092396229773,-0.0307591093488,0.00822045785481,0.10434299972
480,86.1891916148,7.33041038534,-10.4875862401,5.07326325018,3.67445763204,-0.31251345953,0.0928684981695,-0.030926573051,0.00101016690337,0.0928779451532,-0.0309360200107,0.00817011370205,0.104869101645
481,86.4014010422,7.34582552483,-10.4875862401,5.07326325018,3.68350464404,-0.313170647796,0.0933619772564,-0.0310533130591,0.0010287729233,0.0933715969368,-0.0310629326834,0.00827953767137,0.105366657936
482,86.59099108,7.33945971108,-10.4875862401,5.07326325018,3.69158733907,-0.312899247865,0.0938763527929,-0.0312069828838,0.00102906895459,0.0938861195355,-0.0312167496397,0.00823561708981,0.105901185669
483,86.7684503355,7.35880127815,-10.4875862401,5.07326325018,3.69915285667,-0.31372383518,0.0943308525114,-0.0313650152664,0.00105032689971,0.0943409724922,-0.0313751352635,0.00836522354159,0.10639046131
484,86.9638117604,7.32474421194,-10.4875862401,5.07326325018,3.70748159777,-0.312271901933,0.0948330410631,-0.0315250329002,0.00104929725071,0.0948429902135,-0.0315349820556,0.00830982179345,0.106918573075
485,87.1161881107,7.33105115177,-10.4875862401,5.07326325018,3.71397778814,-0.312540780941,0.0953150187745,-0.0316224515619,0.00105620127479,0.0953252014531,-0.0316326342335,0.00832758284129,0.107383515554
486,87.3433919298,7.33574741734,-10.4875862401,5.07326325018,3.72366403113,-0.31274099305,0.0958004405153,-0.0317731105662,0.00105584604246,0.0958104522964,-0.0317831223478,0.00828797055886,0.107890601353
487,87.4884889625,7.32390345021,-10.4875862401,5.07326325018,3.72984988605,-0.312236049479,0.096268889441,-0.0319397179913,0.00104963929358,0.0962787795653,-0.0319496080969,0.0081948454291,0.108395940708
488,87.6871892513,7.32500236162,-10.4875862401,5.07326325018,3.73832097064,-0.312282908943,0.0967699429299,-0.0321058751956,0.00107750790318,0.096780055807,-0.0321159880734,0.00837356709631,0.108927412991
489,87.8549400352,7.33761875608,-10.4875862401,5.07326325018,3.74547259827,-0.312820780811,0.0972482206939,-0.0322409921446,0.0010795849131,0.0972584620363,-0.0322512334914,0.00834281918491,0.109416290036
490,88.0341508646,7.32044197446,-10.4875862401,5.07326325018,3.75311279676,-0.312088474932,0.0977606791394,-0.0323639954598,0.00108296574563,0.0977709852018,-0.032374301526,0.0083365124933,0.109923493521
491,88.2122139711,7.32711246603,-10.4875862401,5.07326325018,3.76070406309,-0.31237285932,0.0982529518026,-0.032470605496,0.00107036852961,0.0982627539211,-0.0324804076078,0.00819135937849,0.110400405615
492,88.3933863171,7.31246757843,-10.4875862401,5.07326325018,3.76842788679,-0.311748506969,0.0987620839075,-0.0324524862972,0.00107904904764,0.0987721461521,-0.0324625485347,0.00823393181358,0.110797484693
493,88.5857172624,7.33281245428,-10.4875862401,5.07326325018,3.77662743323,-0.312615866958,0.0992181879263,-0.0328902069987,0.00111823480862,0.0992287970765,-0.032900816152,0.00847842759315,0.111498441002
494,88.7562787695,7.35659263565,-10.4875862401,5.07326325018,3.78389888827,-0.313629670061,0.0997203995201,-0.0329505076163,0.00106006579357,0.0997301931409,-0.0329603012795,0.00800783285294,0.111946745676
495,88.9221662976,7.3419186524,-10.4875862401,5.07326325018,3.7909710787,-0.313004089189,0.100233801424,-0.0330820733261,0.00109598880009,0.100244073813,-0.033092345691,0.00823213656876,0.11246014497
496,89.0930943926,7.32153083847,-10.4875862401,5.07326325018,3.79825817526,-0.312134899403,0.100731542471,-0.0332329899558,0.00111691264755,0.100742084481,-0.0332435319499,0.00834355467173,0.112975270699
497,89.2743187662,7.34560536966,-10.4875862401,5.07326325018,3.80598422061,-0.313161257088,0.10123131069,-0.0333049990213,0.00107919351976,0.101241239288,-0.033314927639,0.00803067578458,0.113430004115
498,89.4466123286,7.36687399602,-10.4875862401,5.07326325018,3.81332951161,-0.314067994822,0.101693862962,-0.0334471068662,0.00109301174736,0.101703967071,-0.0334572109896,0.00809897819322,0.113909072114
499,89.6541209901,7.3373311471,-10.4875862401,5.07326325018,3.82217611377,-0.312808507411,0.102206818161,-0.0337148736547,0.00112932056538,0.102217538612,-0.0337255941332,0.00832343876599,0.114525179444
500,89.8355530638,7.37394502845,-10.4875862401,5.07326325018,3.82991100956,-0.314369449501,0.102749526109,-0.0337898913103,0.0011355430163,0.10276017458,-0.0338005397739,0.00832919139452,0.115016264767
501,90.0074772905,7.3762285131,-10.4875862401,5.07326325018,3.83724056944,-0.31446678602,0.103276687726,-0.0339252463032,0.00112111464982,0.103287031274,-0.0339355898014,0.00818464033197,0.115540499885
502,90.2213599144,7.37461411667,-10.4875862401,5.07326325018,3.8463589093,-0.314397971712,0.103743143593,-0.0341424800152,0.00114374825288,0.103753986283,-0.0341533227085,0.00830333964873,0.116079712495
503,90.3918695692,7.36151172798,-10.4875862401,5.07326325018,3.85362815539,-0.313839379192,0.104218218585,-0.0342436966838,0.00115875257829,0.10422932238,-0.0342548005041,0.00837978443551,0.116536399465
504,90.5540769233,7.37918394397,-10.4875862401,5.07326325018,3.86054345138,-0.314592798407,0.104718819094,-0.0344133206209,0.0011526961196,0.104729639849,-0.0344241413689,0.00829930331701,0.117064729882
505,90.7159219059,7.36307585672,-10.4875862401,5.07326325018,3.86744329537,-0.31390607153,0.1052718004,-0.0345246794224,0.00115825032237,0.105282646622,-0.0345355256643,0.0082953881736,0.117590599059
506,90.9081567213,7.37403267287,-10.4875862401,5.07326325018,3.87563874494,-0.314373189483,0.105779149234,-0.0347113776374,0.0011479144857,0.105789833138,-0.0347220615135,0.00818493466209,0.118136468482
507,91.0771045594,7.36605670982,-10.4875862401,5.07326325018,3.88284141242,-0.314033159698,0.106222521951,-0.0348595748385,0.00115795957065,0.106233266917,-0.0348703198173,0.00821975190959,0.118602912323
508,91.2889987831,7.40146909151,-10.4875862401,5.07326325018,3.89187497369,-0.315542865026,0.106709976239,-0.035025502482,0.00122108937902,0.106721708506,-0.0350372347152,0.00862759873565,0.119118662022
509,91.4281526662,7.37616553929,-10.4875862401,5.07326325018,3.8978074529,-0.314464112439,0.107267821246,-0.0351467464059,0.00116343978603,0.107278557873,-0.0351574830405,0.00818081875363,0.11965264414
510,91.6227990666,7.37377056517,-10.4875862401,5.07326325018,3.90610571137,-0.314362011099,0.107826249728,-0.035318207,0.00116551549404,0.107837087411,-0.0353290446591,0.00815068584004,0.120226938981
511,91.8155496113,7.37507555032,-10.4875862401,5.07326325018,3.91432313744,-0.314417645679,0.10830749565,-0.035449540843,0.00120141148223,0.108318668504,-0.0354607137309,0.00837095464103,0.120709330619
512,92.0039627327,7.35276994475,-10.4875862401,5.07326325018,3.92235566114,-0.313466700867,0.108867609586,-0.0356224212223,0.00119189214868,0.108878530432,-0.0356333420928,0.00825669174522,0.121284930719
513,92.1724032761,7.36777507107,-10.4875862401,5.07326325018,3.92953670026,-0.314106412146,0.109347477227,-0.0357907438988,0.00118019566407,0.109358241803,-0.0358015084849,0.00814634725814,0.121793564422
514,92.3629239368,7.40024737069,-10.4875862401,5.07326325018,3.93765906396,-0.315490781992,0.109885625997,-0.0359145780443,0.00120201222003,0.109896698385,-0.0359256504988,0.00826127542454,0.122313943508
515,92.5227046872,7.37120593712,-10.4875862401,5.07326325018,3.94447090103,-0.314252667354,0.110375881097,-0.0361154427992,0.0011961447474,0.110386776782,-0.036126338527,0.00818020650301,0.122855100702
516,92.7181891836,7.39831128874,-10.4875862401,5.07326325018,3.9528048896,-0.315408247268,0.110920985795,-0.0361769318438,0.00122171578172,0.110932425966,-0.0361883719717,0.00831543910821,0.123333398384
517,92.9086867176,7.38261048336,-10.4875862401,5.07326325018,3.96092626012,-0.314738877994,0.111449352816,-0.0363073270445,0.00125809973809,0.111461377223,-0.0363193514609,0.00852830555968,0.123850384468
518,93.0934459283,7.40238600681,-10.4875862401,5.07326325018,3.96880302107,-0.315581961073,0.11197908643,-0.0364308766518,0.00119591937653,0.11199010732,-0.0364418975482,0.00807355448251,0.124361224214
519,93.2598243195,7.42910472615,-10.4875862401,5.07326325018,3.97589612512,-0.316721041625,0.112501361967,-0.0366304019539,0.00118933292245,0.112512087506,-0.0366411275111,0.0079888434978,0.124925000061
520,93.4067986473,7.38439509432,-10.4875862401,5.07326325018,3.98216201425,-0.314814959025,0.113041849816,-0.0367842167111,0.00122082953098,0.113053056109,-0.0367954229926,0.00816110757858,0.125468904562
521,93.5790305227,7.39746037436,-10.4875862401,5.07326325018,3.98950467153,-0.315371971527,0.113550909307,-0.0369334108087,0.00124810851993,0.113562689408,-0.0369451908949,0.00830916833509,0.125984323082
522,93.7365602286,7.37718365942,-10.4875862401,5.07326325018,3.99622055654,-0.314507510501,0.114079466097,-0.0370923356855,0.00125679773267,0.11409110947,-0.0371039790347,0.00832856475511,0.12652086188
523,93.9116025781,7.36959869528,-10.4875862401,5.07326325018,4.00368304433,-0.314184153466,0.11457589049,-0.0372251796404,0.00124873993531,0.1145874061,-0.0372366952435,0.0082410733343,0.127012165526
524,94.1128963925,7.38067137405,-10.4875862401,5.07326325018,4.01226469821,-0.314656203253,0.115129212679,-0.0373873563161,0.00125139950246,0.1151405436,-0.0373986871953,0.00821613084636,0.127570174979
525,94.3009475256,7.36513175352,-10.4875862401,5.07326325018,4.02028177347,-0.313993712056,0.11564594212,-0.0375313107259,0.00126835905049,0.11565770711,-0.0375430757484,0.00829132732167,0.128086288766
526,94.481183134,7.35860096922,-10.4875862401,5.07326325018,4.02796566277,-0.313715293362,0.116226449096,-0.0376792300194,0.00126871027953,0.116238110185,-0.0376908911163,0.00825548827481,0.128653725068
527,94.6569785049,7.35121363998,-10.4875862401,5.07326325018,4.03546025789,-0.313400349318,0.116727077347,-0.0378471817984,0.00127712683334,0.116738928874,-0.0378590333494,0.00827931150747,0.129174515579
528,94.8558330338,7.38298749287,-10.4875862401,5.07326325018,4.04393791656,-0.314754948909,0.117256748625,-0.037986817599,0.00129099864627,0.117268672499,-0.0379987414984,0.00833419765969,0.12969540046
529,95.0187102114,7.39765760228,-10.4875862401,5.07326325018,4.05088176302,-0.315380368124,0.117773817894,-0.0381435539016,0.00129511213429,0.117785779114,-0.0381555151254,0.00831547806084,0.130219814509
530,95.1982694162,7.39735066623,-10.4875862401,5.07326325018,4.05853681699,-0.315367283428,0.118348494887,-0.0382853520483,0.00130905552122,0.118360628626,-0.0382974857877,0.00837282694357,0.130777109615
531,95.3573470212,7.39046378491,-10.4875862401,5.07326325018,4.06531868885,-0.315073686307,0.118867507614,-0.0384280415149,0.00129601363691,0.118879407026,-0.03843994092,0.00824985548727,0.131290761162
532,95.5415442554,7.38552581655,-10.4875862401,5.07326325018,4.07317147384,-0.314863166408,0.119404793104,-0.0385981233275,0.00130903893941,0.119416741746,-0.0386100719608,0.00829960340973,0.131840051343
533,95.7306509482,7.38960843183,-10.4875862401,5.07326325018,4.08123356016,-0.315037211762,0.119933489219,-0.0387348303626,0.00130994056101,0.119945459258,-0.0387468003736,0.00826981774873,0.132356449915
534,95.9149682682,7.3788853871,-10.4875862401,5.07326325018,4.08909146556,-0.314580072617,0.12052496879,-0.0388939791468,0.001321590743,0.120537341959,-0.0389063523284,0.00830566491512,0.132939372392
535,96.1043051036,7.38455522066,-10.4875862401,5.07326325018,4.09716336553,-0.314821792036,0.121046781164,-0.0390131220478,0.00131642257555,0.121058968417,-0.039025309287,0.00823846069869,0.133435831256
536,96.2736010028,7.4044326968,-10.4875862401,5.07326325018,4.10438086377,-0.315669213553,0.121571831533,-0.0391711223128,0.00133939106117,0.121584168478,-0.0391834591944,0.00834935528744,0.133964613958
537,96.4655455848,7.37300212933,-10.4875862401,5.07326325018,4.1125639235,-0.314329254463,0.122118603045,-0.0393263797937,0.00134198312681,0.12213099239,-0.0393387691205,0.00832152370986,0.134508213372
538,96.6509711545,7.37164794553,-10.4875862401,5.07326325018,4.1204690772,-0.314271516722,0.122673025634,-0.0394891074966,0.0013471067128,0.12268538031,-0.0395014621604,0.00832157459321,0.135062846921
539,96.8069134946,7.39774128523,-10.4875862401,5.07326325018,4.12711728391,-0.315383932875,0.123195290821,-0.0396577593751,0.00135276285274,0.12320773672,-0.0396702052579,0.00832977957476,0.13559704032
540,96.9706172913,7.40449862795,-10.4875862401,5.07326325018,4.13409637915,-0.315672025605,0.12378652548,-0.0397706906706,0.00136756266693,0.123799213686,-0.039783378905,0.00837641223117,0.136141338622
541,97.1621421758,7.41154904733,-10.4875862401,5.07326325018,4.14226155914,-0.315972603221,0.124317286219,-0.0399599401193,0.00137683647856,0.124330019929,-0.0399726739409,0.00839566483429,0.136697132473
542,97.3240210186,7.40670003964,-10.4875862401,5.07326325018,4.14916285426,-0.315765865055,0.124894859669,-0.0401083139253,0.0013905474878,0.124907953066,-0.0401214073706,0.00843749725139,0.13725750615
543,97.4819527651,7.40125049467,-10.4875862401,5.07326325018,4.15589587898,-0.315533550434,0.125448650825,-0.0402235557225,0.00136921765147,0.125461270632,-0.0402361754905,0.00828154585712,0.137772592816
544,97.7010141582,7.41403217729,-10.4875862401,5.07326325018,4.16523499259,-0.316078451072,0.126007081692,-0.0403807325169,0.00137604613813,0.126019616614,-0.0403932674331,0.00828386367052,0.138323508785
545,97.8447967651,7.42307267385,-10.4875862401,5.07326325018,4.17136479746,-0.316463884444,0.126541373494,-0.0405513333084,0.00138422627763,0.126553994852,-0.0405639546114,0.00829988251373,0.138866544648
546,98.020544656,7.44696457059,-10.4875862401,5.07326325018,4.17885736923,-0.317482456585,0.127095603496,-0.0407022689589,0.00139226048377,0.127108511622,-0.0407151770785,0.00830658875154,0.1394094994
547,98.1894172631,7.42270743243,-10.4875862401,5.07326325018,4.18605682236,-0.316448308415,0.127651605381,-0.0408694341303,0.00139099552133,0.127664242855,-0.040882071684,0.00826833491239,0.139965497232
548,98.3692891403,7.42166112173,-10.4875862401,5.07326325018,4.19372520562,-0.316403709834,0.128213282732,-0.0409955895002,0.00140169833741,0.128226144103,-0.0410084509118,0.00830227580606,0.140493774791
549,98.5369945374,7.41167456568,-10.4875862401,5.07326325018,4.20087489602,-0.315977958403,0.128774386933,-0.0411303903531,0.00140846090427,0.128787261751,-0.0411432652162,0.00830497400591,0.141027818758
550,98.7315290412,7.41534307992,-10.4875862401,5.07326325018,4.20916839998,-0.316134351317,0.129351264721,-0.0413268843953,0.00141564607039,0.129364431169,-0.0413400508946,0.00830382854324,0.141622267923
551,98.9111133541,7.41019997756,-10.4875862401,5.07326325018,4.21682451517,-0.315915075001,0.129905009067,-0.0414453921542,0.00144108100297,0.129918622307,-0.0414590053406,0.0084338469831,0.142138291694
552,99.0933051085,7.40747697988,-10.4875862401,5.07326325018,4.22459179136,-0.315799000157,0.130499579155,-0.0416356531067,0.00144228915476,0.130512903251,-0.041648977254,0.00839761622677,0.142739266396
553,99.2519433431,7.4298728765,-10.4875862401,5.07326325018,4.23135491872,-0.316753779301,0.131031524792,-0.0417786357932,0.00144112270409,0.131044805914,-0.0417919169167,0.00835363837869,0.143255804069
554,99.4443505241,7.43651992752,-10.4875862401,5.07326325018,4.23955772185,-0.317037169465,0.131635889995,-0.0419116749451,0.00145702474705,0.131649354658,-0.0419251396117,0.00840845740652,0.143820191422
555,99.6241089983,7.42739182032,-10.4875862401,5.07326325018,4.24722126898,-0.316648016638,0.132195962557,-0.0420792302694,0.00145481784788,0.132209382594,-0.0420926503094,0.00836754789641,0.144376824012
556,99.8102705342,7.45330032973,-10.4875862401,5.07326325018,4.25515778469,-0.317752557619,0.132803773666,-0.0422586037065,0.00146551717265,0.132817268399,-0.0422720984491,0.00838657567946,0.144978606437
557,99.9674003066,7.45539649114,-10.4875862401,5.07326325018,4.2618566345,-0.317841924302,0.133316766997,-0.0424016731589,0.00145356369332,0.133330153892,-0.0424150600737,0.00828711410018,0.145479151143
558,100.13851916,7.44776193459,-10.4875862401,5.07326325018,4.26915184652,-0.317516443879,0.133927270027,-0.0425575947257,0.00148104261679,0.133941090929,-0.0425714156664,0.00840953504168,0.146065102484
559,100.319228456,7.44542704782,-10.4875862401,5.07326325018,4.27685593255,-0.317416901871,0.134496963946,-0.0426912589254,0.00147461669676,0.13451056585,-0.0427048608581,0.0083394819259,0.146600362788
560,100.499701842,7.44235936821,-10.4875862401,5.07326325018,4.28454994777,-0.317286114634,0.135077908503,-0.0428517672703,0.00147870390818,0.13509150784,-0.0428653666571,0.00832511482895,0.147165462675
561,100.668643639,7.43376897031,-10.4875862401,5.07326325018,4.29175235136,-0.316919894076,0.135658361385,-0.0429999296264,0.001494506734,0.135672189251,-0.0430137574959,0.00838986153501,0.14772077455
562,100.845134113,7.43567658784,-10.4875862401,5.07326325018,4.29927657441,-0.317001214929,0.136253562678,-0.0431708359858,0.00148923278199,0.136267166014,-0.0431844393311,0.00831287204075,0.148302805019
563,101.027430413,7.44786219479,-10.4875862401,5.07326325018,4.3070483334,-0.317520712167,0.136831361896,-0.0433192049789,0.00148136024754,0.136844950528,-0.0433327936497,0.00824562655974,0.148854995302
564,101.210118028,7.44628704605,-10.4875862401,5.07326325018,4.31483674715,-0.317453580139,0.137427418909,-0.0434811169729,0.00151690124652,0.137441396721,-0.0434950948153,0.00840368596716,0.149431648584
565,101.385212863,7.42835323143,-10.4875862401,5.07326325018,4.32230147139,-0.31668900859,0.137979795153,-0.0436408027137,0.0015142761714,0.137993692449,-0.0436546999885,0.00835196640025,0.149972055925
566,101.577115146,7.42666164443,-10.4875862401,5.07326325018,4.33048273269,-0.316616892504,0.138592349223,-0.0438237957607,0.00153763010662,0.138606820062,-0.0438382665408,0.00844791201149,0.150577237434
567,101.733655905,7.42045867669,-10.4875862401,5.07326325018,4.33715645619,-0.316352436191,0.139149237302,-0.0439688247885,0.00151534278688,0.139162988281,-0.0439825757584,0.0082942295159,0.151107903915
568,101.922611156,7.45389225029,-10.4875862401,5.07326325018,4.34521208171,-0.31777779298,0.139742905786,-0.0441191471615,0.00154940487337,0.139757419747,-0.0441336611218,0.00844155662738,0.151672339178
569,102.075081827,7.43904056658,-10.4875862401,5.07326325018,4.35171227926,-0.31714462044,0.140339829051,-0.0442805929589,0.00153563292028,0.140353889918,-0.0442946538144,0.00834112233258,0.152245437941
570,102.264110384,7.4257054967,-10.4875862401,5.07326325018,4.35977104817,-0.316576123724,0.140975374644,-0.0444164902663,0.00153033619331,0.140989222338,-0.0444303379301,0.00827373272947,0.152828134879
571,102.436654512,7.43149749766,-10.4875862401,5.07326325018,4.36712701267,-0.316823050367,0.141532031887,-0.0445847976319,0.00155437762369,0.141546298413,-0.0445990641342,0.00837142231878,0.153377181898
572,102.625141098,7.43381571766,-10.4875862401,5.07326325018,4.37516266703,-0.316921880022,0.142140789154,-0.0447687421147,0.00154575148093,0.142154879903,-0.044782832793,0.00828270323901,0.15397628458
573,102.799914111,7.43113623829,-10.4875862401,5.07326325018,4.38261368055,-0.316807652206,0.142735441982,-0.0449216491753,0.00155536917687,0.142749530145,-0.044935737343,0.00831037883817,0.154539852223
574,102.988333788,7.42342846316,-10.4875862401,5.07326325018,4.39064646672,-0.316479045718,0.143319428328,-0.045025919065,0.00155803985337,0.143333508358,-0.0450399990776,0.00828040062724,0.155057535526
575,103.164553989,7.44421989102,-10.4875862401,5.07326325018,4.39815916639,-0.317365445422,0.143955041562,-0.0451883981079,0.00156176140352,0.143969150863,-0.0452025074237,0.00827032777749,0.15565899196
576,103.327347007,7.47240091052,-10.4875862401,5.07326325018,4.40509942424,-0.31856686247,0.144513875886,-0.0453850376906,0.00158924941498,0.144528375095,-0.0453995369578,0.00838660090864,0.156229067615
577,103.49456233,7.44767262411,-10.4875862401,5.07326325018,4.41222824123,-0.317512645768,0.145123098245,-0.0455012687303,0.00158905116044,0.145137573947,-0.0455157444513,0.00835619037716,0.156773962899
578,103.673637169,7.46902331669,-10.4875862401,5.07326325018,4.41986263519,-0.318422857869,0.145729506139,-0.0456816036326,0.0015945105295,0.14574407498,-0.045696172492,0.00833859487379,0.157365926833
579,103.859412449,7.484816025,-10.4875862401,5.07326325018,4.42778269695,-0.319096141663,0.146365940804,-0.0458180688899,0.00159202594616,0.146380464888,-0.0458325929471,0.00830964275457,0.157945757973
580,104.000314391,7.4711655168,-10.4875862401,5.07326325018,4.43378968083,-0.318514195183,0.147015188161,-0.0459837797148,0.0015959752142,0.147029639829,-0.0459982313406,0.00827881229746,0.158556652809
581,104.193172142,7.46538773363,-10.4875862401,5.07326325018,4.44201168319,-0.318267888188,0.147596748876,-0.0461185043821,0.00162107398626,0.14761156206,-0.0461333175483,0.00839624483276,0.15909334241
582,104.364080985,7.46745369069,-10.4875862401,5.07326325018,4.44929795543,-0.318355956379,0.148242282843,-0.0463077446601,0.00161310290306,0.148256878927,-0.0463223407651,0.00831473234565,0.159718918978
583,104.534095713,7.46092061441,-10.4875862401,5.07326325018,4.45654609856,-0.318077426514,0.148824972405,-0.0464592081154,0.00162753302838,0.148839784021,-0.0464740197341,0.00835184372213,0.16026909755
584,104.712062656,7.46504554385,-10.4875862401,5.07326325018,4.464133274,-0.318253290697,0.149460252544,-0.0466251461615,0.00164442440428,0.149475453182,-0.0466403467613,0.00840815053533,0.160868634244
585,104.87696784,7.45404679405,-10.4875862401,5.07326325018,4.47116358741,-0.317784381978,0.150051838151,-0.046788406335,0.00166480065196,0.150067416178,-0.0468039842883,0.00848680823085,0.161433089505
586,105.030286716,7.411178496,-10.4875862401,5.07326325018,4.47769995076,-0.315956803911,0.150652663185,-0.0469794964114,0.00166910260056,0.150668119213,-0.0469949524774,0.00846938371036,0.162025703072
587,105.205170082,7.43006615851,-10.4875862401,5.07326325018,4.48515564824,-0.316762031356,0.151274626758,-0.0470720085522,0.00165386769395,0.151289729313,-0.0470871111722,0.00834656361098,0.162555103041
588,105.402086263,7.43075208233,-10.4875862401,5.07326325018,4.49355069277,-0.31679127144,0.151910121322,-0.0472597012789,0.0016875928702,0.15192574936,-0.0472753293511,0.00851014256732,0.163170244756
589,105.577122678,7.45659412689,-10.4875862401,5.07326325018,4.50101291267,-0.31789298409,0.152526275811,-0.0474261834252,0.00170241368369,0.152542055141,-0.047441962752,0.00853439943588,0.163752900311
590,105.754035862,7.47490649458,-10.4875862401,5.07326325018,4.50855515995,-0.318673675589,0.153156659618,-0.0475748685025,0.00169327884112,0.153172212871,-0.0475904217939,0.00845816102649,0.164331692424
591,105.926177867,7.48083947925,-10.4875862401,5.07326325018,4.51589400118,-0.318926622641,0.153787799769,-0.0477788130881,0.00172393698217,0.153803983571,-0.0477949968722,0.0085797205894,0.164954732307
592,106.089041303,7.50393930729,-10.4875862401,5.07326325018,4.52283726015,-0.319911430525,0.154421167699,-0.0478806511071,0.0016732107998,0.154436379414,-0.04789586281,0.00829625503843,0.165496235706
593,106.249609698,7.50038982869,-10.4875862401,5.07326325018,4.52968269885,-0.319760097136,0.15505234857,-0.0480539804719,0.00168340676672,0.155067673766,-0.0480693057013,0.00830494013511,0.166093977619
594,106.423268059,7.48828085102,-10.4875862401,5.07326325018,4.53708616921,-0.319243865777,0.155718917074,-0.0482095062755,0.00169629207811,0.155734384371,-0.0482249735092,0.00834745700714,0.166702450067
595,106.592558527,7.48563238115,-10.4875862401,5.07326325018,4.54430344138,-0.319130960066,0.156272724137,-0.0483768459329,0.00172412835745,0.15628859865,-0.048392720479,0.00845971866432,0.167237450896
596,106.779590512,7.48943812269,-10.4875862401,5.07326325018,4.55227708243,-0.319293212413,0.156997247062,-0.0485366715591,0.00170435088525,0.157012703201,-0.048552127602,0.00830502830525,0.16788968503
597,106.926546685,7.48852107912,-10.4875862401,5.07326325018,4.55854218689,-0.319254111999,0.157606637529,-0.0486876210166,0.00173516902086,0.157622572666,-0.0487035561397,0.00844140291104,0.168452169103
598,107.114449609,7.48835811517,-10.4875862401,5.07326325018,4.56655294559,-0.319247163275,0.1582686892,-0.0488501096407,0.0017355596595,0.158284645752,-0.0488660662264,0.00840117161725,0.169059682314
599,107.29737266,7.4865004407,-10.4875862401,5.07326325018,4.57435141147,-0.319167965638,0.158906663931,-0.0490053969783,0.0017581295457,0.158922809697,-0.0490215427216,0.00848525701417,0.169644004771
600,107.47184629,7.49105219338,-10.4875862401,5.07326325018,4.58178964949,-0.319362012805,0.159582274036,-0.0491516622324,0.00175556054069,0.15959835308,-0.0491677413122,0.00844094168842,0.170247504918
601,107.639079133,7.48519643231,-10.4875862401,5.07326325018,4.58891919166,-0.319112369538,0.160201577802,-0.0493258528739,0.00175515678164,0.160217549666,-0.049341824751,0.00839651697249,0.170832114061
602,107.807306189,7.4868953497,-10.4875862401,5.07326325018,4.59609113632,-0.319184792431,0.160859846691,-0.0494897876257,0.00175888046097,0.160876017549,-0.04950595854,0.0083794872316,0.171436019554
603,107.971255646,7.45349175839,-10.4875862401,5.07326325018,4.60308070189,-0.317760716619,0.161480465419,-0.049685365969,0.00179048011523,0.161496910885,-0.049701811431,0.00850479673148,0.172037333071
604,108.13744982,7.42062470191,-10.4875862401,5.07326325018,4.61016597959,-0.316359517389,0.162181393222,-0.0498133643109,0.00177865732727,0.162197666297,-0.0498296374282,0.00842388173894,0.172642432644
605,108.339195586,7.45682215923,-10.4875862401,5.07326325018,4.61876688422,-0.317902700186,0.16281651874,-0.0498846939886,0.00175204158904,0.162832307698,-0.0499004829444,0.00825957439684,0.173152963857
606,108.543058983,7.45204802316,-10.4875862401,5.07326325018,4.62745808645,-0.317699172268,0.16345920891,-0.0501339583572,0.00180863931497,0.163475964114,-0.0501507135653,0.00850049920268,0.173811538421
607,108.688180118,7.46947587979,-10.4875862401,5.07326325018,4.63364495935,-0.318442169888,0.164116149198,-0.0502816274595,0.00177184894984,0.164132118331,-0.0502975965837,0.00828641733622,0.174396761994
608,108.85769594,7.49523511631,-10.4875862401,5.07326325018,4.64087184783,-0.319540342854,0.164805525207,-0.0504370151188,0.00181401938268,0.164822127201,-0.0504536171083,0.00846765078176,0.175012031805
609,109.005918761,7.49465617384,-10.4875862401,5.07326325018,4.64719094677,-0.319515662537,0.165444198435,-0.0505966878623,0.00182764665754,0.165460971044,-0.0506134605241,0.00848814613294,0.175594373012
610,109.188401172,7.49198867729,-10.4875862401,5.07326325018,4.6549706227,-0.319401940911,0.16615019539,-0.0507871807395,0.00180520578079,0.166166585574,-0.050803570962,0.00834636025534,0.176246477021
611,109.346767943,7.46952960419,-10.4875862401,5.07326325018,4.66172218949,-0.318444456021,0.166786142772,-0.0509599311529,0.00182866648197,0.166802976286,-0.0509767646695,0.00842451839241,0.176835167538
612,109.518794917,7.51330191243,-10.4875862401,5.07326325018,4.66905612504,-0.320310567387,0.167473066051,-0.0510658106858,0.00181703217607,0.167489519092,-0.0510822637055,0.00834139979507,0.177405199796
613,109.663775705,7.49496801229,-10.4875862401,5.07326325018,4.67523700085,-0.319528952405,0.168101894013,-0.0512682280859,0.00184447157893,0.168118737779,-0.0512850718344,0.00843479778417,0.178010259678
614,109.861474717,7.49991074109,-10.4875862401,5.07326325018,4.6836653992,-0.319739677327,0.1688379273,-0.0514292826581,0.00184961192588,0.168854867865,-0.0514462232814,0.00843139516048,0.178658333386
615,110.009560322,7.48762733147,-10.4875862401,5.07326325018,4.68997864981,-0.31921601188,0.169493748798,-0.0515852174765,0.00185428784255,0.169510675445,-0.0516021441282,0.00842644792475,0.179244371309
616,110.17807444,7.50955178097,-10.4875862401,5.07326325018,4.69716283348,-0.320150696556,0.170141495591,-0.0517680430645,0.00187512309513,0.170158844387,-0.0517853919036,0.00849483695114,0.179844301769
617,110.361496316,7.50364708705,-10.4875862401,5.07326325018,4.70498254968,-0.31989896082,0.17083832196,-0.0518776554976,0.00183686220203,0.170854913404,-0.0518942470207,0.00829157960768,0.180420025299
618,110.503411595,7.48067187746,-10.4875862401,5.07326325018,4.71103276304,-0.318919483742,0.171508649133,-0.0520720607547,0.00186136227319,0.171525545006,-0.0520889567065,0.00836507197361,0.181042203895
619,110.682472083,7.47697317822,-10.4875862401,5.07326325018,4.71866654185,-0.318761783596,0.172199656862,-0.0522375024985,0.00188613473099,0.172217092062,-0.0522549376517,0.00846372988276,0.181657409826
620,110.854388524,7.45880300847,-10.4875862401,5.07326325018,4.72599576685,-0.317987151322,0.172888637703,-0.0523706736045,0.00188688969846,0.172905871409,-0.0523879073129,0.00842374891581,0.182243874981
621,111.028355725,7.45685123487,-10.4875862401,5.07326325018,4.7334124133,-0.317903945662,0.17359015949,-0.0525749091214,0.00188800419278,0.173607473528,-0.0525922231708,0.00839723920355,0.182893630975
622,111.200665494,7.45683829827,-10.4875862401,5.07326325018,4.74075839488,-0.317903384302,0.174319017525,-0.0527389908343,0.00188289178209,0.174335960851,-0.0527559342327,0.00834511511128,0.183528843974
623,111.346883098,7.43810819312,-10.4875862401,5.07326325018,4.74699201073,-0.317104882763,0.174969481732,-0.0528914441532,0.00189001776423,0.17498664229,-0.0529086047475,0.0083205595299,0.184099251191
624,111.525736108,7.43175320433,-10.4875862401,5.07326325018,4.75461696394,-0.316833947459,0.175697428255,-0.0530300035535,0.00189195565308,0.175714600582,-0.053047175906,0.00832458444002,0.184712527467
625,111.683258448,7.42565594007,-10.4875862401,5.07326325018,4.76133253286,-0.316574020532,0.176385279975,-0.0531609685953,0.00193016548245,0.176403076193,-0.0531787647608,0.00845412790372,0.185291335868
626,111.869546703,7.43548023617,-10.4875862401,5.07326325018,4.76927445151,-0.316992842234,0.17710502167,-0.0533496699387,0.00193311106493,0.177122697357,-0.0533673456666,0.00844829139046,0.185934292851
627,112.025888864,7.42725746841,-10.4875862401,5.07326325018,4.7759397136,-0.316642281926,0.177775500295,-0.0534950050086,0.0019524512657,0.177793321485,-0.053512826175,0.00849118528662,0.1865092989
628,112.18327628,7.41918284571,-10.4875862401,5.07326325018,4.78264952121,-0.316298040732,0.178487177245,-0.0537020863448,0.00194760573974,0.178505068527,-0.0537199776268,0.00844756690629,0.187159717381
629,112.338042519,7.41468407783,-10.4875862401,5.07326325018,4.78924758904,-0.31610625297,0.179189648412,-0.0538472426033,0.00194706481455,0.179207402622,-0.0538649968152,0.00839640910483,0.187753132087
630,112.516455489,7.44489574027,-10.4875862401,5.07326325018,4.79685377825,-0.317394245885,0.17991442413,-0.053958869021,0.00195437070339,0.17993246564,-0.053976910562,0.00841751809561,0.188332825751
631,112.668670037,7.45350799133,-10.4875862401,5.07326325018,4.80334304679,-0.317761416454,0.180624305787,-0.0541483007543,0.00196383616401,0.180642203865,-0.0541661988376,0.008411035932,0.188963296199
632,112.834938243,7.45365145381,-10.4875862401,5.07326325018,4.81043147546,-0.317767539023,0.181388471122,-0.0543030532525,0.00194949214469,0.18140621324,-0.0543207954086,0.00831864766324,0.189602726323
633,112.996529223,7.43926368193,-10.4875862401,5.07326325018,4.81732051106,-0.317154142702,0.182073105409,-0.0544452431771,0.00198358021038,0.182091311508,-0.0544634493283,0.00845092405538,0.190176787707
634,113.175269335,7.43800799525,-10.4875862401,5.07326325018,4.824940636,-0.317100615162,0.182805673691,-0.054609630129,0.00198969080305,0.182824026856,-0.0546279832699,0.0084703480008,0.19079832523
635,113.329245566,7.44262759909,-10.4875862401,5.07326325018,4.83150501918,-0.317297563901,0.18353188156,-0.054767465773,0.0019932585177,0.183550270894,-0.0547858550545,0.00842449284285,0.191408616984
636,113.516399123,7.43978106888,-10.4875862401,5.07326325018,4.83948383027,-0.317176203495,0.184287390805,-0.0549259090246,0.00198623554714,0.184305559992,-0.0549440781148,0.00837339080009,0.19203676377
637,113.685809738,7.43040062251,-10.4875862401,5.07326325018,4.84670622284,-0.316776289808,0.184969206614,-0.0550636135345,0.00199741548608,0.184987448525,-0.0550818553922,0.00838822339815,0.192596974998
638,113.853884827,7.43157914428,-10.4875862401,5.07326325018,4.85387166696,-0.316826532363,0.185765305163,-0.0552144898913,0.00203257369945,0.185784019604,-0.0552332043008,0.00850964977183,0.193244206665
639,114.008078397,7.45293638232,-10.4875862401,5.07326325018,4.86044533801,-0.317737040089,0.186470443357,-0.0553554743436,0.00200513129471,0.186488481215,-0.0553735122103,0.00834335570422,0.193818062435
640,114.180414325,7.44235295372,-10.4875862401,5.07326325018,4.86779243515,-0.317285853755,0.18725407539,-0.0555472203628,0.00200350725956,0.187272119312,-0.0555652642366,0.00831748856257,0.194483287998
641,114.331783682,7.44600846263,-10.4875862401,5.07326325018,4.8742456917,-0.317441694512,0.187970884992,-0.0556922564399,0.00203707094484,0.187989469164,-0.0557108406298,0.00843430072459,0.195067315459
642,114.502429203,7.43502798853,-10.4875862401,5.07326325018,4.88152072664,-0.316973561172,0.188756267515,-0.0558455580481,0.00202892185204,0.188774779558,-0.0558640701686,0.00837918442737,0.195699285413
643,114.641305573,7.43850117327,-10.4875862401,5.07326325018,4.88744137402,-0.317121632176,0.189461013041,-0.0559852673263,0.00203222520141,0.189479386035,-0.0560036403394,0.00834507500163,0.196265361763
644,114.809345342,7.42131483729,-10.4875862401,5.07326325018,4.89460532151,-0.316388938436,0.1901872677,-0.0561175213011,0.00204538314302,0.190205952744,-0.0561362063461,0.00840303996497,0.196835147506
645,114.983705917,7.42299900065,-10.4875862401,5.07326325018,4.90203872848,-0.316460738724,0.190959222653,-0.0562975045212,0.00206579954211,0.190978180801,-0.0563164627278,0.0084408544746,0.197475675501
646,115.149118906,7.43907789792,-10.4875862401,5.07326325018,4.90909070224,-0.317146230901,0.191724656361,-0.056465365308,0.00203587705882,0.191742941556,-0.0564836505397,0.00829075620362,0.198095005091
647,115.314907656,7.42838065581,-10.4875862401,5.07326325018,4.91615868927,-0.316690176839,0.192516992945,-0.0565734212132,0.00207778068908,0.192536120228,-0.0565925485491,0.00844558020683,0.198687170514
648,115.458805826,7.40806340379,-10.4875862401,5.07326325018,4.92229341842,-0.315824001442,0.193279460781,-0.0566972329784,0.00206119028192,0.193298264594,-0.0567160368279,0.0083584201065,0.199263188248
649,115.634730982,7.39095597612,-10.4875862401,5.07326325018,4.92979354204,-0.315094670751,0.194093326451,-0.0568847404553,0.00206639143928,0.194112113978,-0.0569035280507,0.00834577259027,0.199925639731
650,115.811878146,7.39298966251,-10.4875862401,5.07326325018,4.93734576615,-0.315181364004,0.194892323017,-0.0570340599834,0.00209305010836,0.19491156064,-0.0570532976177,0.00843670644634,0.200542569772
651,115.964841292,7.37347341549,-10.4875862401,5.07326325018,4.94386695518,-0.314349344495,0.195652929784,-0.0571823892092,0.0020860772899,0.195671995713,-0.0572014551873,0.00836175434922,0.201134218048
652,116.128941486,7.36412290201,-10.4875862401,5.07326325018,4.95086296187,-0.313950703503,0.196481888584,-0.0573040379861,0.00207872474486,0.196500748011,-0.0573228974142,0.00830391883959,0.201743245658
653,116.292138276,7.37170042891,-10.4875862401,5.07326325018,4.95782042904,-0.314273748086,0.197230148075,-0.0574475280319,0.00209247685192,0.197249299757,-0.0574666796701,0.00835192679485,0.202315919148
654,116.461462878,7.33683018369,-10.4875862401,5.07326325018,4.96503915957,-0.312787146663,0.198063158469,-0.0575832357305,0.00207482635623,0.198081872781,-0.0576019500926,0.00822939077003,0.202931224067
655,116.638265669,7.35143667755,-10.4875862401,5.07326325018,4.97257670547,-0.313409863218,0.198814615177,-0.0577037350997,0.00208614323885,0.198833747631,-0.0577228675703,0.00822766811608,0.203486639808
656,116.807667782,7.35054588903,-10.4875862401,5.07326325018,4.97979873504,-0.313371877938,0.199644244551,-0.0578545650971,0.00210306188448,0.199663532256,-0.0578738528795,0.00831090069272,0.204103324849
657,116.956569757,7.35953547569,-10.4875862401,5.07326325018,4.98614678761,-0.313755132587,0.200409939848,-0.0579883914106,0.00212631131469,0.200429521752,-0.0580079732383,0.00837318081043,0.204668151861
658,117.130596641,7.32857041407,-10.4875862401,5.07326325018,4.99356597586,-0.312435013831,0.201268672355,-0.058146143351,0.00210028976165,0.201287840228,-0.0581653111118,0.00826238702503,0.205306569257
659,117.317132275,7.32859527419,-10.4875862401,5.07326325018,5.00151844331,-0.312436068018,0.202067748029,-0.0582846448167,0.0020995668448,0.202086855101,-0.0583037518632,0.00821506452406,0.205888668558
660,117.491637874,7.34700519961,-10.4875862401,5.07326325018,5.00895806349,-0.313220938101,0.202892185119,-0.0584162332723,0.00211767202036,0.202911765263,-0.0584358135344,0.00827865657194,0.206477536647
661,117.652279295,7.31985947378,-10.4875862401,5.07326325018,5.01580660089,-0.31206364391,0.203774406459,-0.0584986872076,0.00215946216388,0.203794817884,-0.0585190986066,0.00841905700005,0.207062381883
662,117.807319187,7.31906303841,-10.4875862401,5.07326325018,5.0224163233,-0.3120296959,0.20455905768,-0.058693268607,0.00208131614165,0.204577699043,-0.0587119100178,0.00806216258872,0.207668421305
663,117.96446423,7.33002795161,-10.4875862401,5.07326325018,5.02911580417,-0.312497151452,0.205373294709,-0.0587915350722,0.00210878944651,0.20539257439,-0.0588108147419,0.00815995846427,0.208215728793
664,118.134308679,7.33174496692,-10.4875862401,5.07326325018,5.03635669429,-0.312570355526,0.206223474826,-0.0589507433094,0.00212416438453,0.206243088464,-0.0589703569564,0.00819176485194,0.208828721133
665,118.284189531,7.31292734987,-10.4875862401,5.07326325018,5.04274648923,-0.311768116416,0.207082227177,-0.0590537358397,0.00210906972597,0.207101528859,-0.0590730374958,0.00812213199787,0.209395734874
666,118.435340608,7.30533185852,-10.4875862401,5.07326325018,5.049190431,-0.311444291026,0.207936683211,-0.0591951438097,0.00211951366239,0.207956458583,-0.0592149192608,0.00813456885893,0.209991018888
667,118.604167974,7.28742268236,-10.4875862401,5.07326325018,5.05638795444,-0.310680773139,0.208804475324,-0.0593422804904,0.00213549644253,0.208824245024,-0.0593620502076,0.00816758555098,0.210590476841
668,118.780777847,7.276638869,-10.4875862401,5.07326325018,5.06391726113,-0.310221046463,0.209750230085,-0.0594181369151,0.00210009901895,0.209769640987,-0.059437547813,0.00800619085249,0.21117786195
669,118.932505468,7.27169580821,-10.4875862401,5.07326325018,5.07038579831,-0.310010321186,0.210583586094,-0.0595569732455,0.0021756964613,0.210604271764,-0.0595776590892,0.00830585864189,0.211741077058
670,119.065335053,7.21557740041,-10.4875862401,5.07326325018,5.07604864418,-0.307617847309,0.211471516353,-0.0596735851821,0.00213651922169,0.211491471891,-0.059693540656,0.00811752922555,0.212319294394
671,119.24329669,7.24288832779,-10.4875862401,5.07326325018,5.08363559869,-0.308782176093,0.212400579271,-0.0597514631496,0.00211984829016,0.212420283132,-0.0597711670156,0.00802635660314,0.212882559589
672,119.415496693,7.26944743754,-10.4875862401,5.07326325018,5.09097689936,-0.309914454217,0.21329839226,-0.0598967799267,0.00213160243185,0.21331834401,-0.0599167316112,0.00803700507269,0.213478956937
673,119.595659183,7.2513691001,-10.4875862401,5.07326325018,5.09865768204,-0.309143732056,0.214226209116,-0.060046379166,0.0021293044808,0.214246139842,-0.0600663098867,0.00801906138504,0.214088790231
674,119.746122503,7.23314508227,-10.4875862401,5.07326325018,5.10507229406,-0.308366792698,0.215184544171,-0.0601357502662,0.00212557213867,0.21520433031,-0.0601555364129,0.00798005460846,0.21465991519
675,119.924533981,7.23462549474,-10.4875862401,5.07326325018,5.11267842298,-0.308429911913,0.216086744191,-0.06023364497,0.00217568380297,0.216107635959,-0.0602545369068,0.0081461382934,0.215207885858
676,120.073342412,7.20542025872,-10.4875862401,5.07326325018,5.11902249377,-0.307184820278,0.217089242521,-0.0603813307785,0.00217479497575,0.217109975169,-0.060402063478,0.0081251210902,0.21583692374
677,120.225728104,7.22665531572,-10.4875862401,5.07326325018,5.12551906831,-0.308090134113,0.21810937605,-0.060479343123,0.00213168790484,0.21812939916,-0.0604993662142,0.00794733951175,0.216434260883
678,120.394333984,7.21530769009,-10.4875862401,5.07326325018,5.132707157,-0.307606349658,0.21920987802,-0.0605742027593,0.00215056744011,0.219230505628,-0.0605948304027,0.00798440400641,0.217066944194
679,120.546671267,7.17897430701,-10.4875862401,5.07326325018,5.13920166104,-0.30605736706,0.220184338366,-0.0606635663518,0.00214845995481,0.220204820766,-0.0606840487099,0.00798295595132,0.217616158578
680,120.704067156,7.16031716113,-10.4875862401,5.07326325018,5.14591183381,-0.305261959628,0.221304091232,-0.0607984581155,0.00214218515647,0.221324489806,-0.0608188567172,0.0079125822491,0.218268749631
681,120.843212308,7.15649237302,-10.4875862401,5.07326325018,5.15184394301,-0.305098903938,0.222331956909,-0.060891583019,0.00212645473047,0.222352208308,-0.0609118344175,0.00781760665878,0.21884659686
682,121.011251232,7.1456541812,-10.4875862401,5.07326325018,5.15900786156,-0.304636845926,0.223474319606,-0.0610172245307,0.00216938209247,0.22349555757,-0.061038462495,0.0079570798651,0.219494280629
683,121.172771432,7.15364282827,-10.4875862401,5.07326325018,5.16589385098,-0.304977424843,0.224558636528,-0.0610687420027,0.00215407616297,0.224579444036,-0.0610895496006,0.00790655107389,0.220047631878
684,121.326401125,7.12913252379,-10.4875862401,5.07326325018,5.1724434657,-0.303932478186,0.225727179494,-0.0611998888296,0.00216691537003,0.225748030686,-0.0612207401235,0.00791885253993,0.220692412949
685,121.477666237,7.12242655355,-10.4875862401,5.07326325018,5.17889228909,-0.303646595961,0.226852765738,-0.061291529273,0.00215710961511,0.226873529431,-0.061312292843,0.00785663212833,0.22127677105
686,121.655293055,7.100818384,-10.4875862401,5.07326325018,5.18646493959,-0.302725381951,0.228018798957,-0.0614031045974,0.00217008849549,0.228040178055,-0.061424483837,0.00789108562918,0.221890123922
687,121.819681923,7.05883999262,-10.4875862401,5.07326325018,5.1934732472,-0.300935745195,0.229240571196,-0.0615115027673,0.00217319905573,0.2292616959,-0.0615326277125,0.00786064817573,0.222514500277
688,121.980430042,7.04371312132,-10.4877445942,5.073104896,5.20032633478,-0.300290847765,0.230612757394,-0.0615925783516,0.0021573606589,0.230633583426,-0.061613404361,0.0077633995268,0.22318973259
689,122.133623212,7.00995408639,-10.4879909787,5.07360639811,5.2068573441,-0.298851617678,0.23178755667,-0.0616497387477,0.00215206101632,0.231808471123,-0.0616706533103,0.00772547440129,0.223730353441
690,122.286801821,6.9958247745,-10.4885807629,5.07374730994,5.21338770206,-0.298249244855,0.232998303663,-0.0618297443932,0.00221600879072,0.233020358009,-0.0618517986472,0.00799195740944,0.224375156683
691,122.43885253,7.00601558489,-10.488853771,5.07384420186,5.21987000585,-0.298683724924,0.23430335708,-0.0617667456,0.00215264123209,0.234324198959,-0.0617875874063,0.00770332909169,0.224857634467
692,122.576337469,6.93729159348,-10.4900522414,5.07406470057,5.22573133543,-0.29575383597,0.235536466202,-0.0618525186271,0.00212961248888,0.235556873448,-0.0618729258992,0.00760278060722,0.225403150358
693,122.728205297,6.8904568855,-10.490369682,5.07397672736,5.23220582762,-0.293757160149,0.236849343402,-0.0619560759725,0.00216635590411,0.236870575793,-0.0619773083874,0.00772914428487,0.22599852197
694,122.891001513,6.8301873033,-10.4914995778,5.07451481312,5.23914623758,-0.291187714519,0.238116213718,-0.0620128034839,0.00214988352364,0.238136961906,-0.0620335516277,0.00767266495581,0.226504989778
695,123.034682437,6.79045506004,-10.4930189247,5.07395115503,5.24527171654,-0.289493832495,0.239256809566,-0.0620328564207,0.0021826008548,0.239278563422,-0.0620546100784,0.00778578966643,0.226917766834
696,123.190949252,6.72113856642,-10.4947181305,5.07336034273,5.2519337447,-0.286538699408,0.240619650669,-0.0622060115231,0.00214043705857,0.240640837176,-0.0622271980273,0.00764749065866,0.22749315581
697,123.308907295,6.65823785181,-10.4978045956,5.07356379004,5.25696259826,-0.283857085019,0.241479328061,-0.0620511500093,0.00217269901979,0.241501348537,-0.0620731705759,0.00776809165994,0.227554856804
698,123.383925827,6.58520328832,-10.5051267071,5.07020541219,5.26016080693,-0.280743438795,0.242234671767,-0.0602430148716,0.00199419249749,0.242278981877,-0.0602873249833,0.00738991136465,0.226324584279
